     Program PWSCF v.6.4.1 starts on  8Nov2021 at 21:44:49

     K-points division:     npool     =       8
     R & G space division:  proc/nbgrp/npool/nimage =      16
     Waiting for input...
     Reading input from standard input
Warning: card &IONS ignored
Warning: card   UPSCALE           = 100.D0, ignored
Warning: card / ignored
Warning: card &CELL ignored
Warning: card   CELL_DYNAMICS     = 'BFGS' ignored
Warning: card   PRESS_CONV_THR    = 0.5D0 ignored
Warning: card   CELL_DOFREE = 'ALL' ignored
Warning: card / ignored

     Current dimensions of program PWSCF are:
     Max number of different atomic species (ntypx) = 10
     Max number of k-points (npk) =  40000
     Max angular momentum in pseudopotentials (lmaxx) =  3

     bravais-lattice index     =            0
     lattice parameter (alat)  =      19.5020  a.u.
     unit-cell volume          =    5474.7522 (a.u.)^3
     number of atoms/cell      =           72
     number of atomic types    =            3
     number of electrons       =       856.00
     number of Kohn-Sham states=          514
     kinetic-energy cutoff     =      60.0000  Ry
     charge density cutoff     =     500.0000  Ry
     convergence threshold     =      1.0E-08
     mixing beta               =       0.5000
     number of iterations used =            8  plain     mixing
     Exchange-correlation      = SLA  PW   PSX  PSC ( 1  4 10  8 0 0)

     celldm(1)=  19.501964  celldm(2)=   0.000000  celldm(3)=   0.000000
     celldm(4)=   0.000000  celldm(5)=   0.000000  celldm(6)=   0.000000

     crystal axes: (cart. coord. in units of alat)
               a(1) = (   1.000000   0.000348   0.000004 )
               a(2) = (  -0.499697   0.866213   0.000164 )
               a(3) = (  -0.000014   0.000262   0.851956 )

     reciprocal axes: (cart. coord. in units 2 pi/alat)
               b(1) = (  0.999799  0.576759 -0.000161 )
               b(2) = ( -0.000402  1.154218 -0.000355 )
               b(3) = ( -0.000005 -0.000225  1.173769 )

     PseudoPot. # 1 for Zn read from file:
     ./GBRV_PBEsol/zn_pbesol_v1.uspp.F.UPF
     MD5 check sum: 7d8615e52efe7c1e2b1899de8658bae2
     Pseudo is Ultrasoft, Zval = 20.0
     Generated by new atomic code, or converted to UPF format
     Using radial grid of  943 points,  6 beta functions with:
                l(1) =   0
                l(2) =   0
                l(3) =   1
                l(4) =   1
                l(5) =   2
                l(6) =   2
     Q(r) pseudized with  8 coefficients,  rinner =    1.100   1.100   1.100
                                                       1.100   1.100

     PseudoPot. # 2 for O  read from file:
     ./GBRV_PBEsol/o_pbesol_v1.2.uspp.F.UPF
     MD5 check sum: 501638753501ef6325af9037351f7734
     Pseudo is Ultrasoft + core correction, Zval =  6.0
     Generated by new atomic code, or converted to UPF format
     Using radial grid of  737 points,  5 beta functions with:
                l(1) =   0
                l(2) =   0
                l(3) =   1
                l(4) =   1
                l(5) =   2
     Q(r) pseudized with  8 coefficients,  rinner =    0.900   0.900   0.900
                                                       0.900   0.900

     PseudoPot. # 3 for Mg read from file:
     ./GBRV_PBEsol/mg_pbesol_v1.4.uspp.F.UPF
     MD5 check sum: 4059f37963cf5867752dbf5ab2400678
     Pseudo is Ultrasoft, Zval = 10.0
     Generated by new atomic code, or converted to UPF format
     Using radial grid of  821 points,  7 beta functions with:
                l(1) =   0
                l(2) =   0
                l(3) =   0
                l(4) =   1
                l(5) =   1
                l(6) =   2
                l(7) =   2
     Q(r) pseudized with  8 coefficients,  rinner =    1.200   1.200   1.200
                                                       1.200   1.200

     atomic species   valence    mass     pseudopotential
        Zn            20.00    65.38000     Zn( 1.00)
        O              6.00    15.99900     O ( 1.00)
        Mg            10.00    24.30500     Mg( 1.00)

     No symmetry found

                                    s                        frac. trans.

      isym =  1     identity

 cryst.   s( 1) = (     1          0          0      )
                  (     0          1          0      )
                  (     0          0          1      )

 cart.    s( 1) = (  1.0000000 -0.0000000 -0.0000000 )
                  (  0.0000000  1.0000000 -0.0000000 )
                  (  0.0000000 -0.0000000  1.0000000 )

   Cartesian axes

     site n.     atom                  positions (alat units)
         1           Zn  tau(   1) = (   0.1671377   0.0963120   0.2175951  )
         2           Zn  tau(   2) = (   0.1678768   0.0953793   0.6402061  )
         3           Zn  tau(   3) = (   0.0001817   0.3855063   0.2160536  )
         4           Zn  tau(   4) = (  -0.0002021   0.3855665   0.6419066  )
         5           Zn  tau(   5) = (  -0.1658789   0.6742345   0.2158612  )
         6           Zn  tau(   6) = (  -0.1661919   0.6741203   0.6425328  )
         7           Zn  tau(   7) = (   0.4993236   0.0966013   0.2156422  )
         8           Zn  tau(   8) = (   0.4998096   0.0956419   0.6423047  )
         9           Zn  tau(   9) = (   0.3331584   0.3854963   0.2152772  )
        10           Mg  tau(  10) = (   0.3357355   0.3841038   0.6410628  )
        11           Mg  tau(  11) = (   0.1671228   0.6761417   0.2163306  )
        12           Zn  tau(  12) = (   0.1668091   0.6744110   0.6421421  )
        13           Zn  tau(  13) = (   0.8334053   0.0961458   0.2142602  )
        14           Zn  tau(  14) = (   0.8325571   0.0960997   0.6427648  )
        15           Mg  tau(  15) = (   0.6666240   0.3866181   0.2153779  )
        16           Zn  tau(  16) = (   0.6661968   0.3861241   0.6409926  )
        17           Zn  tau(  17) = (   0.4997211   0.6748713   0.2157827  )
        18           Mg  tau(  18) = (   0.5011167   0.6738774   0.6415199  )
        19           Mg  tau(  19) = (  -0.0010785   0.1926634   0.4286695  )
        20           Zn  tau(  20) = (   0.0000459   0.1920481   0.0020017  )
        21           Zn  tau(  21) = (  -0.1653866   0.4811142   0.4282083  )
        22           Zn  tau(  22) = (  -0.1669075   0.4806743   0.0033435  )
        23           Zn  tau(  23) = (  -0.3320118   0.7702415   0.4296263  )
        24           Zn  tau(  24) = (  -0.3326306   0.7705137   0.0031454  )
        25           Zn  tau(  25) = (   0.3338081   0.1924204   0.4290797  )
        26           Zn  tau(  26) = (   0.3333627   0.1919196   0.0006197  )
        27           Mg  tau(  27) = (   0.1656177   0.4816317   0.4299164  )
        28           Mg  tau(  28) = (   0.1661734   0.4808895   0.0038464  )
        29           Zn  tau(  29) = (   0.0004240   0.7707072   0.4271649  )
        30           Zn  tau(  30) = (   0.0000101   0.7706342   0.0024723  )
        31           Zn  tau(  31) = (   0.6668100   0.1921295   0.4288622  )
        32           Mg  tau(  32) = (   0.6664163   0.1920808   0.0048935  )
        33           Zn  tau(  33) = (   0.4996682   0.4814244   0.4268901  )
        34           Zn  tau(  34) = (   0.5004503   0.4810057   0.0017553  )
        35           Zn  tau(  35) = (   0.3324532   0.7716350   0.4304296  )
        36           Zn  tau(  36) = (   0.3336420   0.7705836   0.0033100  )
        37           O   tau(  37) = (   0.1663987   0.0964932   0.0031802  )
        38           O   tau(  38) = (   0.1666518   0.0965789   0.4286518  )
        39           O   tau(  39) = (  -0.0000445   0.3843785   0.0020386  )
        40           O   tau(  40) = (   0.0003914   0.3848390   0.4281905  )
        41           O   tau(  41) = (  -0.1661720   0.6733981   0.0033804  )
        42           O   tau(  42) = (  -0.1659388   0.6737563   0.4296086  )
        43           O   tau(  43) = (   0.4999672   0.0962178   0.0030197  )
        44           O   tau(  44) = (   0.5002149   0.0967183   0.4290619  )
        45           O   tau(  45) = (   0.3331574   0.3851358   0.0006569  )
        46           O   tau(  46) = (   0.3326038   0.3852752   0.4298988  )
        47           O   tau(  47) = (   0.1668708   0.6735653   0.0038830  )
        48           O   tau(  48) = (   0.1667813   0.6737287   0.4271469  )
        49           O   tau(  49) = (   0.8335009   0.0965922   0.0023467  )
        50           O   tau(  50) = (   0.8327246   0.0969058   0.4288448  )
        51           O   tau(  51) = (   0.6666860   0.3845827   0.0049301  )
        52           O   tau(  52) = (   0.6669031   0.3851899   0.4268723  )
        53           O   tau(  53) = (   0.5003811   0.6738740   0.0017923  )
        54           O   tau(  54) = (   0.5001826   0.6746801   0.4304117  )
        55           O   tau(  55) = (  -0.0000878   0.1927554   0.2176128  )
        56           O   tau(  56) = (   0.0002519   0.1922052   0.6402241  )
        57           O   tau(  57) = (  -0.1662335   0.4818154   0.2160714  )
        58           O   tau(  58) = (  -0.1669732   0.4812719   0.6419241  )
        59           O   tau(  59) = (  -0.3331395   0.7698743   0.2158789  )
        60           O   tau(  60) = (  -0.3326724   0.7699696   0.6425504  )
        61           O   tau(  61) = (   0.3332340   0.1935344   0.2156602  )
        62           O   tau(  62) = (   0.3336679   0.1921088   0.6423224  )
        63           O   tau(  63) = (   0.1668167   0.4829651   0.2152951  )
        64           O   tau(  64) = (   0.1680375   0.4811124   0.6410808  )
        65           O   tau(  65) = (   0.0000866   0.7708783   0.2163481  )
        66           O   tau(  66) = (   0.0006131   0.7698237   0.6421598  )
        67           O   tau(  67) = (   0.6665739   0.1933604   0.2142780  )
        68           O   tau(  68) = (   0.6662353   0.1934344   0.6427828  )
        69           O   tau(  69) = (   0.4992823   0.4823302   0.2153956  )
        70           O   tau(  70) = (   0.5006840   0.4817796   0.6410103  )
        71           O   tau(  71) = (   0.3339180   0.7708188   0.2158003  )
        72           O   tau(  72) = (   0.3336012   0.7698467   0.6415375  )

   Crystallographic axes

     site n.     atom                  positions (cryst. coord.)
         1           Zn  tau(   1) = (  0.2226180  0.1110206  0.2553839  )
         2           Zn  tau(   2) = (  0.2227512  0.1097936  0.7514320  )
         3           Zn  tau(   3) = (  0.2224912  0.4448815  0.2535104  )
         4           Zn  tau(   4) = (  0.2220738  0.4447999  0.7533635  )
         5           Zn  tau(   5) = (  0.2229906  0.7782037  0.2532204  )
         6           Zn  tau(   6) = (  0.2225433  0.7779205  0.7540344  )
         7           Zn  tau(   7) = (  0.5549043  0.1112215  0.2530901  )
         8           Zn  tau(   8) = (  0.5547684  0.1099625  0.7538936  )
         9           Zn  tau(   9) = (  0.5553953  0.4447363  0.2525975  )
        10           Mg  tau(  10) = (  0.5571004  0.4429769  0.7523718  )
        11           Mg  tau(  11) = (  0.5570252  0.7802709  0.2537694  )
[...]
     atom   36 type  1   force =     0.00000000    0.00000000    0.00000000
     atom   37 type  2   force =     0.00003150   -0.00000491    0.00001868
     atom   38 type  2   force =    -0.00124969    0.00072776    0.00001138
     atom   39 type  2   force =     0.00118247    0.00071003    0.00001104
     atom   40 type  2   force =     0.00122664   -0.00075717   -0.00002970
     atom   41 type  2   force =    -0.00002084   -0.00003127    0.00004302
     atom   42 type  2   force =     0.00003637   -0.00005039    0.00004946
     atom   43 type  2   force =     0.00121850    0.00074458    0.00004673
     atom   44 type  2   force =     0.00000228   -0.00001506    0.00003022
     atom   45 type  2   force =    -0.00126712    0.00069074   -0.00009174
     atom   46 type  2   force =    -0.00127981    0.00073049    0.00004487
     atom   47 type  2   force =    -0.00000716   -0.00145513    0.00004704
     atom   48 type  2   force =     0.00000494   -0.00147774   -0.00005372
     atom   49 type  2   force =    -0.00122806    0.00070976   -0.00000974
     atom   50 type  2   force =     0.00130232    0.00073413   -0.00006825
     atom   51 type  2   force =     0.00001556   -0.00150995    0.00001002
     atom   52 type  2   force =     0.00003288    0.00001742   -0.00002399
     atom   53 type  2   force =     0.00004287    0.00000367   -0.00000750
     atom   54 type  2   force =    -0.00003505    0.00002319    0.00005538
     atom   55 type  2   force =     0.00004089   -0.00001106    0.00005131
     atom   56 type  2   force =     0.00000444   -0.00001426   -0.00005763
     atom   57 type  2   force =    -0.00123667   -0.00068708    0.00001694
     atom   58 type  2   force =     0.00000828    0.00005214   -0.00000499
     atom   59 type  2   force =     0.00001224    0.00000590   -0.00000420
     atom   60 type  2   force =    -0.00123555   -0.00076422    0.00005382
     atom   61 type  2   force =    -0.00003241   -0.00002260   -0.00010970
     atom   62 type  2   force =     0.00000781    0.00141678   -0.00001542
     atom   63 type  2   force =    -0.00001508    0.00156116    0.00005240
     atom   64 type  2   force =     0.00132646   -0.00078883   -0.00000741
     atom   65 type  2   force =     0.00121629   -0.00070661   -0.00010809
     atom   66 type  2   force =    -0.00005422   -0.00001668   -0.00009349
     atom   67 type  2   force =    -0.00001139    0.00147047    0.00002048
     atom   68 type  2   force =    -0.00002045    0.00000303    0.00003150
     atom   69 type  2   force =     0.00123372   -0.00067690   -0.00016758
     atom   70 type  2   force =    -0.00128111    0.00077487   -0.00009540
     atom   71 type  2   force =    -0.00124303   -0.00073310    0.00012565
     atom   72 type  2   force =     0.00128474   -0.00070917    0.00004179
     The Hubbard contrib.    to forces
     atom    1 type  1   force =     0.00000000    0.00000000    0.00000000
     atom    2 type  1   force =     0.00000000    0.00000000    0.00000000
     atom    3 type  1   force =     0.00000000    0.00000000    0.00000000
     atom    4 type  1   force =     0.00000000    0.00000000    0.00000000
     atom    5 type  1   force =     0.00000000    0.00000000    0.00000000
     atom    6 type  1   force =     0.00000000    0.00000000    0.00000000
     atom    7 type  1   force =     0.00000000    0.00000000    0.00000000
     atom    8 type  1   force =     0.00000000    0.00000000    0.00000000
     atom    9 type  1   force =     0.00000000    0.00000000    0.00000000
     atom   10 type  3   force =     0.00000000    0.00000000    0.00000000
     atom   11 type  3   force =     0.00000000    0.00000000    0.00000000
     atom   12 type  1   force =     0.00000000    0.00000000    0.00000000
     atom   13 type  1   force =     0.00000000    0.00000000    0.00000000
     atom   14 type  1   force =     0.00000000    0.00000000    0.00000000
     atom   15 type  3   force =     0.00000000    0.00000000    0.00000000
     atom   16 type  1   force =     0.00000000    0.00000000    0.00000000
     atom   17 type  1   force =     0.00000000    0.00000000    0.00000000
     atom   18 type  3   force =     0.00000000    0.00000000    0.00000000
     atom   19 type  3   force =     0.00000000    0.00000000    0.00000000
     atom   20 type  1   force =     0.00000000    0.00000000    0.00000000
     atom   21 type  1   force =     0.00000000    0.00000000    0.00000000
     atom   22 type  1   force =     0.00000000    0.00000000    0.00000000
     atom   23 type  1   force =     0.00000000    0.00000000    0.00000000
     atom   24 type  1   force =     0.00000000    0.00000000    0.00000000
     atom   25 type  1   force =     0.00000000    0.00000000    0.00000000
     atom   26 type  1   force =     0.00000000    0.00000000    0.00000000
     atom   27 type  3   force =     0.00000000    0.00000000    0.00000000
     atom   28 type  3   force =     0.00000000    0.00000000    0.00000000
     atom   29 type  1   force =     0.00000000    0.00000000    0.00000000
     atom   30 type  1   force =     0.00000000    0.00000000    0.00000000
     atom   31 type  1   force =     0.00000000    0.00000000    0.00000000
     atom   32 type  3   force =     0.00000000    0.00000000    0.00000000
     atom   33 type  1   force =     0.00000000    0.00000000    0.00000000
     atom   34 type  1   force =     0.00000000    0.00000000    0.00000000
     atom   35 type  1   force =     0.00000000    0.00000000    0.00000000
     atom   36 type  1   force =     0.00000000    0.00000000    0.00000000
     atom   37 type  2   force =     0.00000000    0.00000000    0.00000000
     atom   38 type  2   force =     0.00000000    0.00000000    0.00000000
     atom   39 type  2   force =     0.00000000    0.00000000    0.00000000
     atom   40 type  2   force =     0.00000000    0.00000000    0.00000000
     atom   41 type  2   force =     0.00000000    0.00000000    0.00000000
     atom   42 type  2   force =     0.00000000    0.00000000    0.00000000
     atom   43 type  2   force =     0.00000000    0.00000000    0.00000000
     atom   44 type  2   force =     0.00000000    0.00000000    0.00000000
     atom   45 type  2   force =     0.00000000    0.00000000    0.00000000
     atom   46 type  2   force =     0.00000000    0.00000000    0.00000000
     atom   47 type  2   force =     0.00000000    0.00000000    0.00000000
     atom   48 type  2   force =     0.00000000    0.00000000    0.00000000
     atom   49 type  2   force =     0.00000000    0.00000000    0.00000000
     atom   50 type  2   force =     0.00000000    0.00000000    0.00000000
     atom   51 type  2   force =     0.00000000    0.00000000    0.00000000
     atom   52 type  2   force =     0.00000000    0.00000000    0.00000000
     atom   53 type  2   force =     0.00000000    0.00000000    0.00000000
     atom   54 type  2   force =     0.00000000    0.00000000    0.00000000
     atom   55 type  2   force =     0.00000000    0.00000000    0.00000000
     atom   56 type  2   force =     0.00000000    0.00000000    0.00000000
     atom   57 type  2   force =     0.00000000    0.00000000    0.00000000
     atom   58 type  2   force =     0.00000000    0.00000000    0.00000000
     atom   59 type  2   force =     0.00000000    0.00000000    0.00000000
     atom   60 type  2   force =     0.00000000    0.00000000    0.00000000
     atom   61 type  2   force =     0.00000000    0.00000000    0.00000000
     atom   62 type  2   force =     0.00000000    0.00000000    0.00000000
     atom   63 type  2   force =     0.00000000    0.00000000    0.00000000
     atom   64 type  2   force =     0.00000000    0.00000000    0.00000000
     atom   65 type  2   force =     0.00000000    0.00000000    0.00000000
     atom   66 type  2   force =     0.00000000    0.00000000    0.00000000
     atom   67 type  2   force =     0.00000000    0.00000000    0.00000000
     atom   68 type  2   force =     0.00000000    0.00000000    0.00000000
     atom   69 type  2   force =     0.00000000    0.00000000    0.00000000
     atom   70 type  2   force =     0.00000000    0.00000000    0.00000000
     atom   71 type  2   force =     0.00000000    0.00000000    0.00000000
     atom   72 type  2   force =     0.00000000    0.00000000    0.00000000
     The SCF correction term to forces
     atom    1 type  1   force =    -0.00002779    0.00004516    0.00000000
     atom    2 type  1   force =    -0.00003905    0.00004536    0.00000000
     atom    3 type  1   force =     0.00003336   -0.00000344    0.00000000
     atom    4 type  1   force =     0.00004775    0.00000038    0.00000000
     atom    5 type  1   force =     0.00002830   -0.00000775    0.00000000
     atom    6 type  1   force =     0.00004971   -0.00002158    0.00000000
     atom    7 type  1   force =     0.00002526    0.00002734    0.00000000
     atom    8 type  1   force =     0.00001079   -0.00003610    0.00000000
     atom    9 type  1   force =    -0.00001476    0.00001901    0.00000000
     atom   10 type  3   force =    -0.00004022    0.00002123    0.00000000
     atom   11 type  3   force =     0.00000715   -0.00001208    0.00000000
     atom   12 type  1   force =     0.00002000   -0.00003057    0.00000000
     atom   13 type  1   force =    -0.00000658    0.00000360    0.00000000
     atom   14 type  1   force =     0.00003491   -0.00002890    0.00000000
     atom   15 type  3   force =    -0.00000796   -0.00002501    0.00000000
     atom   16 type  1   force =     0.00002012    0.00000847    0.00000000
     atom   17 type  1   force =    -0.00003831   -0.00000140    0.00000000
     atom   18 type  3   force =    -0.00003489    0.00000692    0.00000000
     atom   19 type  3   force =     0.00002618   -0.00002576    0.00000000
     atom   20 type  1   force =     0.00006591   -0.00003852    0.00000000
     atom   21 type  1   force =    -0.00000475    0.00002685    0.00000000
     atom   22 type  1   force =     0.00001720    0.00002792    0.00000000
     atom   23 type  1   force =    -0.00005725    0.00001001    0.00000000
     atom   24 type  1   force =    -0.00004409    0.00002868    0.00000000
     atom   25 type  1   force =    -0.00005800    0.00003952    0.00000000
     atom   26 type  1   force =    -0.00006946    0.00002311    0.00000000
     atom   27 type  3   force =     0.00004219    0.00000091    0.00000000
     atom   28 type  3   force =     0.00002959    0.00001088    0.00000000
     atom   29 type  1   force =     0.00001785   -0.00003484    0.00000000
     atom   30 type  1   force =     0.00001690   -0.00003631    0.00000000
     atom   31 type  1   force =     0.00000819   -0.00000301    0.00000000
     atom   32 type  3   force =    -0.00000250   -0.00000993    0.00000000
     atom   33 type  1   force =    -0.00005901    0.00004377    0.00000000
     atom   34 type  1   force =    -0.00006517    0.00004397    0.00000000
     atom   35 type  1   force =     0.00004014   -0.00004134    0.00000000
     atom   36 type  1   force =     0.00002227   -0.00004539    0.00000000
     atom   37 type  2   force =    -0.00000190    0.00000156    0.00000000
     atom   38 type  2   force =    -0.00000132    0.00000117    0.00000000
     atom   39 type  2   force =     0.00001792    0.00000274    0.00000000
     atom   40 type  2   force =     0.00001621    0.00000483    0.00000000
     atom   41 type  2   force =     0.00000628    0.00000885    0.00000000
     atom   42 type  2   force =     0.00000559    0.00000615    0.00000000
     atom   43 type  2   force =    -0.00000368   -0.00000874    0.00000000
     atom   44 type  2   force =    -0.00000108   -0.00000581    0.00000000
     atom   45 type  2   force =    -0.00001582    0.00000586    0.00000000
     atom   46 type  2   force =    -0.00001349    0.00000631    0.00000000
     atom   47 type  2   force =     0.00000015   -0.00000811    0.00000000
     atom   48 type  2   force =     0.00000322   -0.00000464    0.00000000
     atom   49 type  2   force =     0.00000746   -0.00001256    0.00000000
     atom   50 type  2   force =    -0.00000059   -0.00001383    0.00000000
     atom   51 type  2   force =    -0.00000435    0.00000111    0.00000000
     atom   52 type  2   force =    -0.00000446   -0.00000124    0.00000000
     atom   53 type  2   force =    -0.00000601    0.00000712    0.00000000
     atom   54 type  2   force =    -0.00000775    0.00000706    0.00000000
     atom   55 type  2   force =     0.00000575   -0.00001002    0.00000000
     atom   56 type  2   force =     0.00001109   -0.00001061    0.00000000
     atom   57 type  2   force =    -0.00000265    0.00000158    0.00000000
     atom   58 type  2   force =     0.00000382    0.00000980    0.00000000
     atom   59 type  2   force =    -0.00000442    0.00000473    0.00000000
     atom   60 type  2   force =    -0.00000265    0.00000868    0.00000000
     atom   61 type  2   force =     0.00000091   -0.00000134    0.00000000
     atom   62 type  2   force =    -0.00000889   -0.00000028    0.00000000
     atom   63 type  2   force =     0.00000813    0.00000705    0.00000000
     atom   64 type  2   force =     0.00001289    0.00000073    0.00000000
     atom   65 type  2   force =     0.00000613    0.00000212    0.00000000
     atom   66 type  2   force =     0.00000155    0.00000058    0.00000000
     atom   67 type  2   force =    -0.00000530   -0.00000268    0.00000000
     atom   68 type  2   force =    -0.00000394   -0.00001083    0.00000000
     atom   69 type  2   force =    -0.00000467   -0.00000123    0.00000000
     atom   70 type  2   force =    -0.00001360    0.00000669    0.00000000
     atom   71 type  2   force =    -0.00000091   -0.00000128    0.00000000
     atom   72 type  2   force =     0.00000079   -0.00000327    0.00000000

     Total force =     0.000133     Total SCF correction =     0.000281
     SCF correction compared to forces is large: reduce conv_thr to get better values

     Computing stress (Cartesian axis) and pressure

          total   stress  (Ry/bohr**3)                   (kbar)     P=    1.59
   0.00001213  -0.00000002   0.00000000          1.78     -0.00      0.00
  -0.00000002   0.00001213  -0.00000000         -0.00      1.78     -0.00
   0.00000000  -0.00000000   0.00000819          0.00     -0.00      1.20

     kinetic stress (kbar)  32012.74      0.72      0.07
                                0.72  32012.41     -0.11
                                0.07     -0.11  32235.42

     local   stress (kbar)   1388.07   -810.09   -593.84
                             -810.09    410.84   -104.50
                             -593.84   -104.50 -25489.91

     nonloc. stress (kbar)   -157.65     -0.29      0.01
                               -0.29   -156.55      0.12
                                0.01      0.12   -230.91

     hartree stress (kbar)  53853.16    401.02    291.71
                              401.02  54312.00     46.34
                              291.71     46.34  66566.82

     exc-cor stress (kbar) -13121.92      0.01     -0.00
                                0.01 -13121.91      0.00
                               -0.00      0.00 -13122.93

     corecor stress (kbar)   -261.15     -0.00     -0.00
                               -0.00   -261.15      0.00
                               -0.00      0.00   -261.53

     ewald   stress (kbar) -73711.47    408.63    302.05
                              408.63 -73193.86     58.15
                              302.05     58.15 -59695.77

     hubbard stress (kbar)      0.00      0.00      0.00
                                0.00      0.00      0.00
                                0.00      0.00      0.00

     london  stress (kbar)      0.00      0.00      0.00
                                0.00      0.00      0.00
                                0.00      0.00      0.00

     DFT-D3  stress (kbar)      0.00      0.00      0.00
                                0.00      0.00      0.00
                                0.00      0.00      0.00

     XDM     stress (kbar)      0.00      0.00      0.00
                                0.00      0.00      0.00
                                0.00      0.00      0.00

     dft-nl  stress (kbar)      0.00      0.00      0.00
                                0.00      0.00      0.00
                                0.00      0.00      0.00

     TS-vdW  stress (kbar)      0.00      0.00      0.00
                                0.00      0.00      0.00
                                0.00      0.00      0.00

     Writing output data file ZnO.save/

     General routines

     Parallel routines

   This run was terminated on:  22: 0: 0   8Nov2021

   JOB DONE.