     Program PWSCF v.6.4.1 starts on 17Sep2021 at 16:56:54

     K-points division:     npool     =       8
     R & G space division:  proc/nbgrp/npool/nimage =       8
     Waiting for input...
     Reading input from standard input
Warning: card &IONS ignored
Warning: card   UPSCALE           = 100.D0, ignored
Warning: card / ignored
Warning: card &CELL ignored
Warning: card   CELL_DYNAMICS     = 'BFGS' ignored
Warning: card   PRESS_CONV_THR    = 0.5D0 ignored
Warning: card   CELL_DOFREE = 'ALL' ignored
Warning: card / ignored

     Current dimensions of program PWSCF are:
     Max number of different atomic species (ntypx) = 10
     Max number of k-points (npk) =  40000
     Max angular momentum in pseudopotentials (lmaxx) =  3

     bravais-lattice index     =            0
     lattice parameter (alat)  =      18.4226  a.u.
     unit-cell volume          =    5757.6291 (a.u.)^3
     number of atoms/cell      =           72
     number of atomic types    =            3
     number of electrons       =       816.00
     number of Kohn-Sham states=          490
     kinetic-energy cutoff     =      60.0000  Ry
     charge density cutoff     =     500.0000  Ry
     convergence threshold     =      1.0E-08
     mixing beta               =       0.5000
     number of iterations used =            8  plain     mixing
     Exchange-correlation      = SLA  PW   PSX  PSC ( 1  4 10  8 0 0)

     celldm(1)=  18.422634  celldm(2)=   0.000000  celldm(3)=   0.000000
     celldm(4)=   0.000000  celldm(5)=   0.000000  celldm(6)=   0.000000

     crystal axes: (cart. coord. in units of alat)
               a(1) = (   1.000000  -0.000928  -0.000030 )
               a(2) = (  -0.500802   0.866030   0.000259 )
               a(3) = (  -0.000032   0.000301   1.063871 )

     reciprocal axes: (cart. coord. in units 2 pi/alat)
               b(1) = (  1.000537  0.578584 -0.000134 )
               b(2) = (  0.001072  1.155315 -0.000327 )
               b(3) = (  0.000028 -0.000265  0.939964 )

     PseudoPot. # 1 for Zn read from file:
     ./GBRV_PBEsol/zn_pbesol_v1.uspp.F.UPF
     MD5 check sum: 7d8615e52efe7c1e2b1899de8658bae2
     Pseudo is Ultrasoft, Zval = 20.0
     Generated by new atomic code, or converted to UPF format
     Using radial grid of  943 points,  6 beta functions with:
                l(1) =   0
                l(2) =   0
                l(3) =   1
                l(4) =   1
                l(5) =   2
                l(6) =   2
     Q(r) pseudized with  8 coefficients,  rinner =    1.100   1.100   1.100
                                                       1.100   1.100

     PseudoPot. # 2 for O  read from file:
     ./GBRV_PBEsol/o_pbesol_v1.2.uspp.F.UPF
     MD5 check sum: 501638753501ef6325af9037351f7734
     Pseudo is Ultrasoft + core correction, Zval =  6.0
     Generated by new atomic code, or converted to UPF format
     Using radial grid of  737 points,  5 beta functions with:
                l(1) =   0
                l(2) =   0
                l(3) =   1
                l(4) =   1
                l(5) =   2
     Q(r) pseudized with  8 coefficients,  rinner =    0.900   0.900   0.900
                                                       0.900   0.900

     PseudoPot. # 3 for Mg read from file:
     ./GBRV_PBEsol/mg_pbesol_v1.4.uspp.F.UPF
     MD5 check sum: 4059f37963cf5867752dbf5ab2400678
     Pseudo is Ultrasoft, Zval = 10.0
     Generated by new atomic code, or converted to UPF format
     Using radial grid of  821 points,  7 beta functions with:
                l(1) =   0
                l(2) =   0
                l(3) =   0
                l(4) =   1
                l(5) =   1
                l(6) =   2
                l(7) =   2
     Q(r) pseudized with  8 coefficients,  rinner =    1.200   1.200   1.200
                                                       1.200   1.200

     atomic species   valence    mass     pseudopotential
        Zn            20.00    65.38000     Zn( 1.00)
        O              6.00    15.99900     O ( 1.00)
        Mg            10.00    24.30500     Mg( 1.00)

     No symmetry found

                                    s                        frac. trans.

      isym =  1     identity

 cryst.   s( 1) = (     1          0          0      )
                  (     0          1          0      )
                  (     0          0          1      )

 cart.    s( 1) = (  1.0000000 -0.0000000 -0.0000000 )
                  (  0.0000000  1.0000000 -0.0000000 )
                  (  0.0000000  0.0000000  1.0000000 )

   Cartesian axes

     site n.     atom                  positions (alat units)
         1           Zn  tau(   1) = (   0.1666025   0.0964078   0.2070153  )
         2           Zn  tau(   2) = (   0.1668970   0.0959606   0.7383466  )
         3           Zn  tau(   3) = (   0.0009089   0.3842508   0.2062161  )
         4           Zn  tau(   4) = (  -0.0011870   0.3860721   0.7384667  )
         5           Zn  tau(   5) = (  -0.1667322   0.6766084   0.2058074  )
         6           Zn  tau(   6) = (  -0.1681075   0.6718713   0.7378074  )
         7           Zn  tau(   7) = (   0.4991371   0.0949598   0.2075247  )
         8           Zn  tau(   8) = (   0.5001482   0.0965203   0.7397554  )
         9           Zn  tau(   9) = (   0.3329196   0.3842321   0.2051527  )
        10           Mg  tau(  10) = (   0.3333779   0.3827662   0.7397367  )
        11           Mg  tau(  11) = (   0.1645005   0.6754114   0.2066528  )
        12           Zn  tau(  12) = (   0.1669635   0.6718463   0.7363825  )
        13           Zn  tau(  13) = (   0.8334608   0.0950535   0.2058856  )
        14           Mg  tau(  14) = (   0.8320008   0.0946564   0.7405431  )
        15           Zn  tau(  15) = (   0.6648507   0.3833254   0.2058568  )
        16           Mg  tau(  16) = (   0.6664149   0.3844145   0.7395451  )
        17           Mg  tau(  17) = (   0.4991991   0.6729640   0.2054155  )
        18           Mg  tau(  18) = (   0.4980102   0.6714998   0.7382575  )
        19           Zn  tau(  19) = (  -0.0014371   0.1926506   0.4738537  )
        20           Zn  tau(  20) = (   0.0011155   0.1943856   1.0046586  )
        21           Zn  tau(  21) = (  -0.1676551   0.4815367   0.4711395  )
        22           Mg  tau(  22) = (  -0.1659164   0.4812963   1.0072913  )
        23           Mg  tau(  23) = (  -0.3342049   0.7699490   0.4723255  )
        24           Mg  tau(  24) = (  -0.3327015   0.7719641   1.0034811  )
        25           Zn  tau(  25) = (   0.3338129   0.1937589   0.4736302  )
        26           Zn  tau(  26) = (   0.3337573   0.1919861   1.0057092  )
        27           Mg  tau(  27) = (   0.1672170   0.4789267   0.4716481  )
        28           Mg  tau(  28) = (   0.1663095   0.4813530   1.0039688  )
        29           Mg  tau(  29) = (  -0.0008366   0.7706407   0.4756707  )
        30           Zn  tau(  30) = (   0.0001869   0.7689344   1.0033289  )
        31           Zn  tau(  31) = (   0.6670500   0.1928254   0.4724152  )
        32           Zn  tau(  32) = (   0.6653473   0.1917185   1.0043853  )
        33           Zn  tau(  33) = (   0.4991242   0.4794014   0.4719447  )
        34           Zn  tau(  34) = (   0.4999168   0.4811219   1.0026748  )
        35           Zn  tau(  35) = (   0.3327179   0.7693948   0.4713442  )
        36           Zn  tau(  36) = (   0.3317095   0.7677960   1.0035614  )
        37           O   tau(  37) = (   0.1665811   0.0966005   0.0037836  )
        38           O   tau(  38) = (   0.1664833   0.0963376   0.5346263  )
        39           O   tau(  39) = (   0.0006203   0.3856604   0.0031601  )
        40           O   tau(  40) = (  -0.0008013   0.3855643   0.5346650  )
        41           O   tau(  41) = (  -0.1674288   0.6740173   0.0023520  )
        42           O   tau(  42) = (  -0.1678659   0.6740163   0.5345398  )
        43           O   tau(  43) = (   0.4998887   0.0945471   0.0040626  )
        44           O   tau(  44) = (   0.5000669   0.0969060   0.5359573  )
        45           O   tau(  45) = (   0.3330515   0.3849920   0.0013252  )
        46           O   tau(  46) = (   0.3326841   0.3848405   0.5373168  )
        47           O   tau(  47) = (   0.1656498   0.6723553   0.0043428  )
        48           O   tau(  48) = (   0.1656543   0.6718915   0.5323495  )
        49           O   tau(  49) = (   0.8335703   0.0952364   0.0016428  )
        50           O   tau(  50) = (   0.8325809   0.0950954   0.5373585  )
        51           O   tau(  51) = (   0.6663689   0.3842541   0.0021159  )
        52           O   tau(  52) = (   0.6665520   0.3847683   0.5364388  )
        53           O   tau(  53) = (   0.5008009   0.6736346   0.0023133  )
        54           O   tau(  54) = (   0.4995408   0.6729650   0.5348714  )
        55           O   tau(  55) = (  -0.0004389   0.1924181   0.2700270  )
        56           O   tau(  56) = (  -0.0005432   0.1923885   0.8007270  )
        57           O   tau(  57) = (  -0.1672412   0.4817086   0.2668180  )
        58           O   tau(  58) = (  -0.1676208   0.4806467   0.8042147  )
        59           O   tau(  59) = (  -0.3349243   0.7696770   0.2692970  )
        60           O   tau(  60) = (  -0.3352702   0.7689072   0.8004986  )
        61           O   tau(  61) = (   0.3331978   0.1926639   0.2697257  )
        62           O   tau(  62) = (   0.3331355   0.1911488   0.8022889  )
        63           O   tau(  63) = (   0.1669020   0.4823192   0.2686128  )
        64           O   tau(  64) = (   0.1671321   0.4799130   0.8010377  )
        65           O   tau(  65) = (  -0.0007202   0.7698554   0.2727942  )
        66           O   tau(  66) = (  -0.0002639   0.7685778   0.7991850  )
        67           O   tau(  67) = (   0.6667449   0.1913772   0.2690559  )
        68           O   tau(  68) = (   0.6668284   0.1924412   0.8011860  )
        69           O   tau(  69) = (   0.4992766   0.4808216   0.2685521  )
        70           O   tau(  70) = (   0.4995281   0.4798424   0.7993385  )
        71           O   tau(  71) = (   0.3327418   0.7686704   0.2677521  )
        72           O   tau(  72) = (   0.3326774   0.7684240   0.8003524  )

   Crystallographic axes

     site n.     atom                  positions (cryst. coord.)
         1           Zn  tau(   1) = (  0.2224444  0.1114922  0.1945659  )
         2           Zn  tau(   2) = (  0.2224093  0.1108019  0.6939982  )
         3           Zn  tau(   3) = (  0.2232031  0.4438640  0.1937339  )
         4           Zn  tau(   4) = (  0.2220888  0.4457917  0.6940297  )
         5           Zn  tau(   5) = (  0.2246254  0.7814494  0.1932678  )
         6           Zn  tau(   6) = (  0.2204375  0.7758009  0.6933296  )
         7           Zn  tau(   7) = (  0.5543198  0.1101757  0.1950543  )
         8           Zn  tau(   8) = (  0.5561632  0.1118054  0.6953315  )
         9           Zn  tau(   9) = (  0.5553816  0.4441988  0.1927436  )
        10           Mg  tau(  10) = (  0.5549206  0.4423306  0.6952335  )
        11           Mg  tau(  11) = (  0.5553434  0.7804214  0.1940719  )
[...]
     atom   36 type  1   force =     0.00000000    0.00000000    0.00000000
     atom   37 type  2   force =    -0.00003861   -0.00156046   -0.00050991
     atom   38 type  2   force =     0.00000160   -0.00152361   -0.00060422
     atom   39 type  2   force =     0.00001636    0.00162554   -0.00106253
     atom   40 type  2   force =     0.00132982    0.00082153   -0.00053775
     atom   41 type  2   force =    -0.00138730   -0.00078945   -0.00110801
     atom   42 type  2   force =    -0.00000971    0.00156310   -0.00111971
     atom   43 type  2   force =    -0.00000195   -0.00008532    0.00006361
     atom   44 type  2   force =     0.00004846   -0.00149998   -0.00051032
     atom   45 type  2   force =    -0.00135498    0.00081208   -0.00052082
     atom   46 type  2   force =    -0.00136748    0.00088676    0.00114101
     atom   47 type  2   force =    -0.00001563   -0.00161655    0.00111183
     atom   48 type  2   force =    -0.00135082   -0.00082465   -0.00111988
     atom   49 type  2   force =     0.00003745   -0.00002391   -0.00002737
     atom   50 type  2   force =    -0.00006236   -0.00004182    0.00164512
     atom   51 type  2   force =     0.00135611    0.00077821   -0.00049835
     atom   52 type  2   force =    -0.00001018    0.00004227    0.00163192
     atom   53 type  2   force =     0.00139752    0.00084440    0.00102915
     atom   54 type  2   force =     0.00136041    0.00073417    0.00105573
     atom   55 type  2   force =    -0.00000912   -0.00003839    0.00009459
     atom   56 type  2   force =    -0.00133832   -0.00075086   -0.00058492
     atom   57 type  2   force =    -0.00000618    0.00005832   -0.00009538
     atom   58 type  2   force =    -0.00137045   -0.00080244    0.00117088
     atom   59 type  2   force =    -0.00140476   -0.00082956    0.00107789
     atom   60 type  2   force =    -0.00137192   -0.00082376    0.00101168
     atom   61 type  2   force =     0.00000087   -0.00000066    0.00008492
     atom   62 type  2   force =    -0.00003197    0.00152146   -0.00047653
     atom   63 type  2   force =     0.00003633    0.00165166    0.00103037
     atom   64 type  2   force =     0.00137889   -0.00082129    0.00106512
     atom   65 type  2   force =     0.00139208   -0.00082493    0.00121853
     atom   66 type  2   force =    -0.00000752   -0.00005859   -0.00003315
     atom   67 type  2   force =     0.00001623   -0.00006879   -0.00002376
     atom   68 type  2   force =     0.00140126    0.00082239   -0.00110183
     atom   69 type  2   force =    -0.00001435    0.00159901   -0.00053028
     atom   70 type  2   force =    -0.00001005   -0.00002969   -0.00168547
     atom   71 type  2   force =     0.00001149   -0.00161201   -0.00108442
     atom   72 type  2   force =     0.00136941    0.00079531   -0.00108377
     The Hubbard contrib.    to forces
     atom    1 type  1   force =     0.00000000    0.00000000    0.00000000
     atom    2 type  1   force =     0.00000000    0.00000000    0.00000000
     atom    3 type  1   force =     0.00000000    0.00000000    0.00000000
     atom    4 type  1   force =     0.00000000    0.00000000    0.00000000
     atom    5 type  1   force =     0.00000000    0.00000000    0.00000000
     atom    6 type  1   force =     0.00000000    0.00000000    0.00000000
     atom    7 type  1   force =     0.00000000    0.00000000    0.00000000
     atom    8 type  1   force =     0.00000000    0.00000000    0.00000000
     atom    9 type  1   force =     0.00000000    0.00000000    0.00000000
     atom   10 type  3   force =     0.00000000    0.00000000    0.00000000
     atom   11 type  3   force =     0.00000000    0.00000000    0.00000000
     atom   12 type  1   force =     0.00000000    0.00000000    0.00000000
     atom   13 type  1   force =     0.00000000    0.00000000    0.00000000
     atom   14 type  3   force =     0.00000000    0.00000000    0.00000000
     atom   15 type  1   force =     0.00000000    0.00000000    0.00000000
     atom   16 type  3   force =     0.00000000    0.00000000    0.00000000
     atom   17 type  3   force =     0.00000000    0.00000000    0.00000000
     atom   18 type  3   force =     0.00000000    0.00000000    0.00000000
     atom   19 type  1   force =     0.00000000    0.00000000    0.00000000
     atom   20 type  1   force =     0.00000000    0.00000000    0.00000000
     atom   21 type  1   force =     0.00000000    0.00000000    0.00000000
     atom   22 type  3   force =     0.00000000    0.00000000    0.00000000
     atom   23 type  3   force =     0.00000000    0.00000000    0.00000000
     atom   24 type  3   force =     0.00000000    0.00000000    0.00000000
     atom   25 type  1   force =     0.00000000    0.00000000    0.00000000
     atom   26 type  1   force =     0.00000000    0.00000000    0.00000000
     atom   27 type  3   force =     0.00000000    0.00000000    0.00000000
     atom   28 type  3   force =     0.00000000    0.00000000    0.00000000
     atom   29 type  3   force =     0.00000000    0.00000000    0.00000000
     atom   30 type  1   force =     0.00000000    0.00000000    0.00000000
     atom   31 type  1   force =     0.00000000    0.00000000    0.00000000
     atom   32 type  1   force =     0.00000000    0.00000000    0.00000000
     atom   33 type  1   force =     0.00000000    0.00000000    0.00000000
     atom   34 type  1   force =     0.00000000    0.00000000    0.00000000
     atom   35 type  1   force =     0.00000000    0.00000000    0.00000000
     atom   36 type  1   force =     0.00000000    0.00000000    0.00000000
     atom   37 type  2   force =     0.00000000    0.00000000    0.00000000
     atom   38 type  2   force =     0.00000000    0.00000000    0.00000000
     atom   39 type  2   force =     0.00000000    0.00000000    0.00000000
     atom   40 type  2   force =     0.00000000    0.00000000    0.00000000
     atom   41 type  2   force =     0.00000000    0.00000000    0.00000000
     atom   42 type  2   force =     0.00000000    0.00000000    0.00000000
     atom   43 type  2   force =     0.00000000    0.00000000    0.00000000
     atom   44 type  2   force =     0.00000000    0.00000000    0.00000000
     atom   45 type  2   force =     0.00000000    0.00000000    0.00000000
     atom   46 type  2   force =     0.00000000    0.00000000    0.00000000
     atom   47 type  2   force =     0.00000000    0.00000000    0.00000000
     atom   48 type  2   force =     0.00000000    0.00000000    0.00000000
     atom   49 type  2   force =     0.00000000    0.00000000    0.00000000
     atom   50 type  2   force =     0.00000000    0.00000000    0.00000000
     atom   51 type  2   force =     0.00000000    0.00000000    0.00000000
     atom   52 type  2   force =     0.00000000    0.00000000    0.00000000
     atom   53 type  2   force =     0.00000000    0.00000000    0.00000000
     atom   54 type  2   force =     0.00000000    0.00000000    0.00000000
     atom   55 type  2   force =     0.00000000    0.00000000    0.00000000
     atom   56 type  2   force =     0.00000000    0.00000000    0.00000000
     atom   57 type  2   force =     0.00000000    0.00000000    0.00000000
     atom   58 type  2   force =     0.00000000    0.00000000    0.00000000
     atom   59 type  2   force =     0.00000000    0.00000000    0.00000000
     atom   60 type  2   force =     0.00000000    0.00000000    0.00000000
     atom   61 type  2   force =     0.00000000    0.00000000    0.00000000
     atom   62 type  2   force =     0.00000000    0.00000000    0.00000000
     atom   63 type  2   force =     0.00000000    0.00000000    0.00000000
     atom   64 type  2   force =     0.00000000    0.00000000    0.00000000
     atom   65 type  2   force =     0.00000000    0.00000000    0.00000000
     atom   66 type  2   force =     0.00000000    0.00000000    0.00000000
     atom   67 type  2   force =     0.00000000    0.00000000    0.00000000
     atom   68 type  2   force =     0.00000000    0.00000000    0.00000000
     atom   69 type  2   force =     0.00000000    0.00000000    0.00000000
     atom   70 type  2   force =     0.00000000    0.00000000    0.00000000
     atom   71 type  2   force =     0.00000000    0.00000000    0.00000000
     atom   72 type  2   force =     0.00000000    0.00000000    0.00000000
     The SCF correction term to forces
     atom    1 type  1   force =    -0.00000779   -0.00002640   -0.00000915
     atom    2 type  1   force =    -0.00002810   -0.00004839   -0.00000178
     atom    3 type  1   force =     0.00005111   -0.00000359   -0.00002827
     atom    4 type  1   force =    -0.00000311   -0.00000592    0.00001874
     atom    5 type  1   force =    -0.00002974    0.00003734   -0.00002805
     atom    6 type  1   force =    -0.00003732    0.00001528    0.00004541
     atom    7 type  1   force =    -0.00000507   -0.00000170   -0.00003510
     atom    8 type  1   force =    -0.00000171   -0.00001785    0.00000969
     atom    9 type  1   force =     0.00000200    0.00002378    0.00003518
     atom   10 type  3   force =    -0.00000230    0.00001408   -0.00000380
     atom   11 type  3   force =     0.00000856   -0.00001887    0.00001758
     atom   12 type  1   force =    -0.00000718   -0.00001138    0.00001061
     atom   13 type  1   force =     0.00000711   -0.00001014    0.00000321
     atom   14 type  3   force =     0.00001384    0.00000070   -0.00000518
     atom   15 type  1   force =    -0.00005122   -0.00000030   -0.00000710
     atom   16 type  3   force =     0.00000019    0.00001365   -0.00000656
     atom   17 type  3   force =     0.00000745   -0.00001019    0.00001185
     atom   18 type  3   force =     0.00002292    0.00000581   -0.00001093
     atom   19 type  1   force =     0.00004348   -0.00003346   -0.00001351
     atom   20 type  1   force =     0.00002039    0.00000119   -0.00003208
     atom   21 type  1   force =    -0.00000719    0.00003871    0.00004833
     atom   22 type  3   force =    -0.00001360    0.00002076   -0.00002489
     atom   23 type  3   force =    -0.00000775    0.00000871    0.00001201
     atom   24 type  3   force =     0.00000319   -0.00001773    0.00000246
     atom   25 type  1   force =    -0.00001967   -0.00002870   -0.00000172
     atom   26 type  1   force =     0.00002430   -0.00004554    0.00000095
     atom   27 type  3   force =     0.00000091    0.00001244    0.00000781
     atom   28 type  3   force =    -0.00000327    0.00000140    0.00000182
     atom   29 type  3   force =    -0.00000851    0.00000118    0.00000515
     atom   30 type  1   force =    -0.00004644    0.00001485   -0.00001460
     atom   31 type  1   force =    -0.00002455   -0.00000507    0.00000931
     atom   32 type  1   force =    -0.00004472    0.00000008   -0.00002288
     atom   33 type  1   force =    -0.00000290    0.00004898    0.00004699
     atom   34 type  1   force =     0.00003659    0.00003330   -0.00001088
     atom   35 type  1   force =     0.00004068   -0.00003374    0.00000942
     atom   36 type  1   force =     0.00003041   -0.00002203    0.00000247
     atom   37 type  2   force =     0.00001381   -0.00000740    0.00000167
     atom   38 type  2   force =     0.00000630   -0.00001094   -0.00001116
     atom   39 type  2   force =     0.00000781    0.00000464   -0.00000373
     atom   40 type  2   force =     0.00001369    0.00000399   -0.00000061
     atom   41 type  2   force =    -0.00000171    0.00001359   -0.00000910
     atom   42 type  2   force =    -0.00000535    0.00001402    0.00000234
     atom   43 type  2   force =    -0.00000929   -0.00000489   -0.00000644
     atom   44 type  2   force =    -0.00000915   -0.00000466   -0.00000300
     atom   45 type  2   force =    -0.00000212   -0.00000619   -0.00000167
     atom   46 type  2   force =    -0.00000214   -0.00000087   -0.00000038
     atom   47 type  2   force =    -0.00001017   -0.00000138   -0.00000306
     atom   48 type  2   force =    -0.00000800   -0.00001034   -0.00000365
     atom   49 type  2   force =    -0.00000609   -0.00000089   -0.00000077
     atom   50 type  2   force =     0.00000415   -0.00000108    0.00000353
     atom   51 type  2   force =    -0.00000464    0.00000078   -0.00000555
     atom   52 type  2   force =    -0.00000654    0.00000287    0.00000607
     atom   53 type  2   force =     0.00001567    0.00000288    0.00000299
     atom   54 type  2   force =     0.00001209    0.00000259    0.00000370
     atom   55 type  2   force =     0.00000744   -0.00000255   -0.00000295
     atom   56 type  2   force =    -0.00000381   -0.00000485    0.00000283
     atom   57 type  2   force =    -0.00000719   -0.00000188   -0.00000473
     atom   58 type  2   force =    -0.00000854    0.00000413    0.00001022
     atom   59 type  2   force =    -0.00000563    0.00000050   -0.00000032
     atom   60 type  2   force =    -0.00000439   -0.00000725    0.00000964
     atom   61 type  2   force =    -0.00000049    0.00000691   -0.00000707
     atom   62 type  2   force =     0.00000877   -0.00000103    0.00000723
     atom   63 type  2   force =     0.00001193    0.00000095    0.00000217
     atom   64 type  2   force =     0.00001023    0.00000246    0.00000441
     atom   65 type  2   force =    -0.00000151    0.00000368   -0.00000526
     atom   66 type  2   force =    -0.00000078    0.00000743    0.00001108
     atom   67 type  2   force =    -0.00000705    0.00000606   -0.00000111
     atom   68 type  2   force =    -0.00000980   -0.00000049    0.00000744
     atom   69 type  2   force =    -0.00000490   -0.00000014    0.00000106
     atom   70 type  2   force =    -0.00000092    0.00000416   -0.00000887
     atom   71 type  2   force =     0.00000627   -0.00001033   -0.00000300
     atom   72 type  2   force =     0.00000425   -0.00000561   -0.00000007

     Total force =     0.000113     Total SCF correction =     0.000245
     SCF correction compared to forces is large: reduce conv_thr to get better values

     Computing stress (Cartesian axis) and pressure

          total   stress  (Ry/bohr**3)                   (kbar)     P=   -0.14
  -0.00000090  -0.00000004  -0.00000000         -0.13     -0.01     -0.00
  -0.00000004  -0.00000090   0.00000001         -0.01     -0.13      0.00
  -0.00000000   0.00000001  -0.00000105         -0.00      0.00     -0.15

     kinetic stress (kbar)  28840.89      0.22     -0.02
                                0.22  28840.61      0.03
                               -0.02      0.03  28876.13

     local   stress (kbar) -12423.05    993.44   -439.70
                              993.44  -6268.44  -1227.65
                             -439.70  -1227.65 -13879.61

     nonloc. stress (kbar)    629.30     -0.55      0.00
                               -0.55    628.91      0.19
                                0.00      0.19    613.29

     hartree stress (kbar)  52093.23   -476.80    215.79
                             -476.80  49067.06    599.91
                              215.79    599.91  52792.02

     exc-cor stress (kbar) -11655.04     -0.03     -0.00
                               -0.03 -11655.05      0.00
                               -0.00      0.00 -11655.40

     corecor stress (kbar)   -248.49     -0.00      0.00
                               -0.00   -248.49     -0.00
                                0.00     -0.00   -248.54

     ewald   stress (kbar) -57236.98   -516.29    223.94
                             -516.29 -60364.73    627.52
                              223.94    627.52 -56498.04

     hubbard stress (kbar)      0.00      0.00      0.00
                                0.00      0.00      0.00
                                0.00      0.00      0.00

     london  stress (kbar)      0.00      0.00      0.00
                                0.00      0.00      0.00
                                0.00      0.00      0.00

     DFT-D3  stress (kbar)      0.00      0.00      0.00
                                0.00      0.00      0.00
                                0.00      0.00      0.00

     XDM     stress (kbar)      0.00      0.00      0.00
                                0.00      0.00      0.00
                                0.00      0.00      0.00

     dft-nl  stress (kbar)      0.00      0.00      0.00
                                0.00      0.00      0.00
                                0.00      0.00      0.00

     TS-vdW  stress (kbar)      0.00      0.00      0.00
                                0.00      0.00      0.00
                                0.00      0.00      0.00

     Writing output data file ZnO.save/

     General routines

     Parallel routines

   This run was terminated on:  17:23:22  17Sep2021

   JOB DONE.