     Program PWSCF v.6.4.1 starts on 19Oct2021 at 12:35: 5

     K-points division:     npool     =       8
     R & G space division:  proc/nbgrp/npool/nimage =      16
     Waiting for input...
     Reading input from standard input

     Current dimensions of program PWSCF are:
     Max number of different atomic species (ntypx) = 10
     Max number of k-points (npk) =  40000
     Max angular momentum in pseudopotentials (lmaxx) =  3

     bravais-lattice index     =            0
     lattice parameter (alat)  =      18.3773  a.u.
     unit-cell volume          =    5754.0044 (a.u.)^3
     number of atoms/cell      =           72
     number of atomic types    =            3
     number of electrons       =       876.00
     number of Kohn-Sham states=          526
     kinetic-energy cutoff     =      60.0000  Ry
     charge density cutoff     =     500.0000  Ry
     convergence threshold     =      1.0E-08
     mixing beta               =       0.5000
     number of iterations used =            8  plain     mixing
     Exchange-correlation      = SLA  PW   PSX  PSC ( 1  4 10  8 0 0)
     nstep                     =          200

     celldm(1)=  18.377274  celldm(2)=   0.000000  celldm(3)=   0.000000
     celldm(4)=   0.000000  celldm(5)=   0.000000  celldm(6)=   0.000000

     crystal axes: (cart. coord. in units of alat)
               a(1) = (   1.000000   0.000006   0.000017 )
               a(2) = (  -0.499993   0.865991  -0.000022 )
               a(3) = (   0.000019  -0.000016   1.070562 )

     reciprocal axes: (cart. coord. in units 2 pi/alat)
               b(1) = (  0.999997  0.577363 -0.000009 )
               b(2) = ( -0.000007  1.154742  0.000018 )
               b(3) = ( -0.000016  0.000014  0.934089 )

     PseudoPot. # 1 for Zn read from file:
     ./GBRV_PBEsol/zn_pbesol_v1.uspp.F.UPF
     MD5 check sum: 7d8615e52efe7c1e2b1899de8658bae2
     Pseudo is Ultrasoft, Zval = 20.0
     Generated by new atomic code, or converted to UPF format
     Using radial grid of  943 points,  6 beta functions with:
                l(1) =   0
                l(2) =   0
                l(3) =   1
                l(4) =   1
                l(5) =   2
                l(6) =   2
     Q(r) pseudized with  8 coefficients,  rinner =    1.100   1.100   1.100
                                                       1.100   1.100

     PseudoPot. # 2 for O  read from file:
     ./GBRV_PBEsol/o_pbesol_v1.2.uspp.F.UPF
     MD5 check sum: 501638753501ef6325af9037351f7734
     Pseudo is Ultrasoft + core correction, Zval =  6.0
     Generated by new atomic code, or converted to UPF format
     Using radial grid of  737 points,  5 beta functions with:
                l(1) =   0
                l(2) =   0
                l(3) =   1
                l(4) =   1
                l(5) =   2
     Q(r) pseudized with  8 coefficients,  rinner =    0.900   0.900   0.900
                                                       0.900   0.900

     PseudoPot. # 3 for Mg read from file:
     ./GBRV_PBEsol/mg_pbesol_v1.4.uspp.F.UPF
     MD5 check sum: 4059f37963cf5867752dbf5ab2400678
     Pseudo is Ultrasoft, Zval = 10.0
     Generated by new atomic code, or converted to UPF format
     Using radial grid of  821 points,  7 beta functions with:
                l(1) =   0
                l(2) =   0
                l(3) =   0
                l(4) =   1
                l(5) =   1
                l(6) =   2
                l(7) =   2
     Q(r) pseudized with  8 coefficients,  rinner =    1.200   1.200   1.200
                                                       1.200   1.200

     atomic species   valence    mass     pseudopotential
        Zn            20.00    65.38000     Zn( 1.00)
        O              6.00    15.99900     O ( 1.00)
        Mg            10.00    24.30500     Mg( 1.00)

     No symmetry found

                                    s                        frac. trans.

      isym =  1     identity

 cryst.   s( 1) = (     1          0          0      )
                  (     0          1          0      )
                  (     0          0          1      )

 cart.    s( 1) = (  1.0000000 -0.0000000 -0.0000000 )
                  ( -0.0000000  1.0000000  0.0000000 )
                  (  0.0000000 -0.0000000  1.0000000 )

   Cartesian axes

     site n.     atom                  positions (alat units)
         1           Zn  tau(   1) = (   0.1666504   0.0974618   0.2072058  )
         2           Zn  tau(   2) = (   0.4998450   0.0953420   0.2067883  )
         3           Zn  tau(   3) = (   0.8332388   0.0974527   0.2054959  )
         4           Zn  tau(   4) = (   0.0000012   0.3848099   0.2063769  )
         5           Zn  tau(   5) = (   0.3333068   0.3847908   0.2078711  )
         6           Zn  tau(   6) = (   0.6668732   0.3848911   0.2077019  )
         7           Zn  tau(   7) = (  -0.1647474   0.6732887   0.2069015  )
         8           Zn  tau(   8) = (   0.1647482   0.6732755   0.2070728  )
         9           Zn  tau(   9) = (   0.5002190   0.6726777   0.2048027  )
        10           Zn  tau(  10) = (   0.1658399   0.0950798   0.7429148  )
        11           Zn  tau(  11) = (   0.4994351   0.0978297   0.7429052  )
        12           Zn  tau(  12) = (   0.3340183   0.3847513   0.7435331  )
        13           Zn  tau(  13) = (   0.6659821   0.3846954   0.7436130  )
        14           Zn  tau(  14) = (  -0.1688651   0.6739435   0.7423182  )
        15           Zn  tau(  15) = (   0.1701802   0.6739876   0.7426676  )
        16           Zn  tau(  16) = (  -0.0007666   0.1929067   0.4746685  )
        17           Zn  tau(  17) = (   0.3335828   0.1926674   0.4758342  )
        18           Zn  tau(  18) = (   0.6666697   0.1924463   0.4748820  )
        19           Zn  tau(  19) = (  -0.1665046   0.4809062   0.4753792  )
        20           Zn  tau(  20) = (   0.1666968   0.4810498   0.4753016  )
        21           Zn  tau(  21) = (   0.5000945   0.4815945   0.4746085  )
        22           Zn  tau(  22) = (  -0.3339225   0.7689464   0.4731187  )
        23           Zn  tau(  23) = (   0.3340886   0.7697155   0.4723356  )
        24           Zn  tau(  24) = (   0.0005486   0.1921781   1.0088401  )
        25           Zn  tau(  25) = (   0.3328388   0.1929997   1.0108680  )
        26           Zn  tau(  26) = (   0.6660688   0.1932919   1.0102015  )
        27           Zn  tau(  27) = (  -0.1667855   0.4815444   1.0098038  )
        28           Zn  tau(  28) = (   0.1670063   0.4814095   1.0103099  )
        29           Zn  tau(  29) = (   0.5001918   0.4811414   1.0104693  )
        30           Zn  tau(  30) = (   0.0000884   0.7686128   1.0086618  )
        31           Mg  tau(  31) = (   0.8325181   0.0950950   0.7431049  )
        32           Mg  tau(  32) = (   0.0011531   0.3854950   0.7437730  )
        33           Mg  tau(  33) = (   0.4998388   0.6730024   0.7422055  )
        34           Mg  tau(  34) = (   0.0000888   0.7698365   0.4769853  )
        35           Mg  tau(  35) = (  -0.3315087   0.7699201   1.0115563  )
        36           Mg  tau(  36) = (   0.3318627   0.7685323   1.0115612  )
        37           O   tau(  37) = (   0.1666075   0.0962371   0.0036961  )
        38           O   tau(  38) = (   0.4996979   0.0955623   0.0031458  )
        39           O   tau(  39) = (   0.8331158   0.0958823   0.0016960  )
        40           O   tau(  40) = (   0.0000224   0.3846334   0.0024427  )
        41           O   tau(  41) = (   0.3335672   0.3851732   0.0042372  )
        42           O   tau(  42) = (   0.6667631   0.3852121   0.0041245  )
        43           O   tau(  43) = (  -0.1659133   0.6734416   0.0036105  )
        44           O   tau(  44) = (   0.1658183   0.6732716   0.0038609  )
        45           O   tau(  45) = (   0.5004309   0.6744590   0.0011157  )
        46           O   tau(  46) = (   0.1663175   0.0957377   0.5384957  )
        47           O   tau(  47) = (   0.5000751   0.0962802   0.5392092  )
        48           O   tau(  48) = (   0.8331299   0.0957036   0.5395980  )
        49           O   tau(  49) = (   0.0001415   0.3850057   0.5404679  )
        50           O   tau(  50) = (   0.3335259   0.3850784   0.5394127  )
        51           O   tau(  51) = (   0.6666128   0.3848834   0.5391989  )
        52           O   tau(  52) = (  -0.1670265   0.6737181   0.5384722  )
        53           O   tau(  53) = (   0.1673944   0.6738954   0.5385010  )
        54           O   tau(  54) = (   0.4998556   0.6738022   0.5391353  )
        55           O   tau(  55) = (  -0.0003603   0.1926954   0.2711214  )
        56           O   tau(  56) = (   0.3336505   0.1924038   0.2717806  )
        57           O   tau(  57) = (   0.6664482   0.1922656   0.2710282  )
        58           O   tau(  58) = (  -0.1663145   0.4809397   0.2714717  )
        59           O   tau(  59) = (   0.1664021   0.4808764   0.2714522  )
        60           O   tau(  60) = (   0.5000791   0.4812381   0.2711568  )
        61           O   tau(  61) = (  -0.3330792   0.7696412   0.2690286  )
        62           O   tau(  62) = (   0.0000111   0.7700365   0.2738241  )
        63           O   tau(  63) = (   0.3332749   0.7698543   0.2683624  )
        64           O   tau(  64) = (  -0.0010382   0.1926887   0.8050505  )
        65           O   tau(  65) = (   0.3322762   0.1922227   0.8070387  )
        66           O   tau(  66) = (   0.6667726   0.1922828   0.8065837  )
        67           O   tau(  67) = (  -0.1664193   0.4809971   0.8061587  )
        68           O   tau(  68) = (   0.1673601   0.4815187   0.8067376  )
        69           O   tau(  69) = (   0.5001066   0.4812854   0.8066340  )
        70           O   tau(  70) = (  -0.3345117   0.7692926   0.8083834  )
        71           O   tau(  71) = (   0.0003702   0.7694432   0.8043137  )
        72           O   tau(  72) = (   0.3351389   0.7701151   0.8084784  )

   Crystallographic axes

     site n.     atom                  positions (cryst. coord.)
         1           Zn  tau(   1) = (  0.2229189  0.1125458  0.1935473  )
         2           Zn  tau(   2) = (  0.5548885  0.1100957  0.1931519  )
         3           Zn  tau(   3) = (  0.8894999  0.1125307  0.1919392  )
         4           Zn  tau(   4) = (  0.2221745  0.4443598  0.1927798  )
         5           Zn  tau(   5) = (  0.5554680  0.4443355  0.1941700  )
         6           Zn  tau(   6) = (  0.8890912  0.4444491  0.1940066  )
         7           Zn  tau(   7) = (  0.2239836  0.7774795  0.1932767  )
         8           Zn  tau(   8) = (  0.5534704  0.7774620  0.1934312  )
         9           Zn  tau(   9) = (  0.8885950  0.7767694  0.1913054  )
        10           Zn  tau(  10) = (  0.2207285  0.1098047  0.6939470  )
        11           Zn  tau(  11) = (  0.5559102  0.1129778  0.6939326  )
        12           Zn  tau(  12) = (  0.5561520  0.4442993  0.6945259  )
        13           Zn  tau(  13) = (  0.8880824  0.4442326  0.6945951  )
        14           Zn  tau(  14) = (  0.2202392  0.7782450  0.6934034  )
[...]
     atom   36 type  3   force =     0.00000000    0.00000000    0.00000000
     atom   37 type  2   force =    -0.00001309   -0.00156902   -0.00049864
     atom   38 type  2   force =    -0.00000931   -0.00006034   -0.00004257
     atom   39 type  2   force =     0.00000851   -0.00154971   -0.00056221
     atom   40 type  2   force =    -0.00002143   -0.00001320    0.00005160
     atom   41 type  2   force =     0.00000062    0.00002376    0.00005919
     atom   42 type  2   force =     0.00003255    0.00002738    0.00006796
     atom   43 type  2   force =    -0.00133582    0.00076581   -0.00048194
     atom   44 type  2   force =     0.00131861    0.00077273   -0.00047280
     atom   45 type  2   force =     0.00001901    0.00162917   -0.00113769
     atom   46 type  2   force =    -0.00002941   -0.00002132    0.00000923
     atom   47 type  2   force =     0.00002479   -0.00155572   -0.00051850
     atom   48 type  2   force =     0.00000541   -0.00004786    0.00161887
     atom   49 type  2   force =     0.00000400   -0.00001807    0.00162854
     atom   50 type  2   force =     0.00002045    0.00003305    0.00005722
     atom   51 type  2   force =    -0.00002284    0.00000466    0.00008107
     atom   52 type  2   force =     0.00132860    0.00078601   -0.00052570
     atom   53 type  2   force =    -0.00130896    0.00079498   -0.00050462
     atom   54 type  2   force =    -0.00002704    0.00002423    0.00164639
     atom   55 type  2   force =    -0.00001628   -0.00000274    0.00007250
     atom   56 type  2   force =     0.00006158   -0.00002546    0.00009035
     atom   57 type  2   force =    -0.00004823   -0.00003416    0.00004841
     atom   58 type  2   force =    -0.00000087   -0.00000294    0.00007094
     atom   59 type  2   force =    -0.00000009   -0.00001341    0.00005708
     atom   60 type  2   force =    -0.00000006   -0.00001129    0.00003293
     atom   61 type  2   force =     0.00002528    0.00000187   -0.00002135
     atom   62 type  2   force =    -0.00000782    0.00006936    0.00175300
     atom   63 type  2   force =    -0.00001345    0.00001613   -0.00005380
     atom   64 type  2   force =    -0.00138267    0.00079505   -0.00115116
     atom   65 type  2   force =    -0.00010105   -0.00003195    0.00004963
     atom   66 type  2   force =     0.00138728   -0.00081665   -0.00051721
     atom   67 type  2   force =     0.00136841   -0.00076692   -0.00060131
     atom   68 type  2   force =    -0.00134834   -0.00074592   -0.00055132
     atom   69 type  2   force =    -0.00001075    0.00161130   -0.00047980
     atom   70 type  2   force =    -0.00144917   -0.00078907    0.00116366
     atom   71 type  2   force =     0.00003101   -0.00005007   -0.00011730
     atom   72 type  2   force =     0.00148654    0.00083569    0.00063183
     The Hubbard contrib.    to forces
     atom    1 type  1   force =     0.00000000    0.00000000    0.00000000
     atom    2 type  1   force =     0.00000000    0.00000000    0.00000000
     atom    3 type  1   force =     0.00000000    0.00000000    0.00000000
     atom    4 type  1   force =     0.00000000    0.00000000    0.00000000
     atom    5 type  1   force =     0.00000000    0.00000000    0.00000000
     atom    6 type  1   force =     0.00000000    0.00000000    0.00000000
     atom    7 type  1   force =     0.00000000    0.00000000    0.00000000
     atom    8 type  1   force =     0.00000000    0.00000000    0.00000000
     atom    9 type  1   force =     0.00000000    0.00000000    0.00000000
     atom   10 type  1   force =     0.00000000    0.00000000    0.00000000
     atom   11 type  1   force =     0.00000000    0.00000000    0.00000000
     atom   12 type  1   force =     0.00000000    0.00000000    0.00000000
     atom   13 type  1   force =     0.00000000    0.00000000    0.00000000
     atom   14 type  1   force =     0.00000000    0.00000000    0.00000000
     atom   15 type  1   force =     0.00000000    0.00000000    0.00000000
     atom   16 type  1   force =     0.00000000    0.00000000    0.00000000
     atom   17 type  1   force =     0.00000000    0.00000000    0.00000000
     atom   18 type  1   force =     0.00000000    0.00000000    0.00000000
     atom   19 type  1   force =     0.00000000    0.00000000    0.00000000
     atom   20 type  1   force =     0.00000000    0.00000000    0.00000000
     atom   21 type  1   force =     0.00000000    0.00000000    0.00000000
     atom   22 type  1   force =     0.00000000    0.00000000    0.00000000
     atom   23 type  1   force =     0.00000000    0.00000000    0.00000000
     atom   24 type  1   force =     0.00000000    0.00000000    0.00000000
     atom   25 type  1   force =     0.00000000    0.00000000    0.00000000
     atom   26 type  1   force =     0.00000000    0.00000000    0.00000000
     atom   27 type  1   force =     0.00000000    0.00000000    0.00000000
     atom   28 type  1   force =     0.00000000    0.00000000    0.00000000
     atom   29 type  1   force =     0.00000000    0.00000000    0.00000000
     atom   30 type  1   force =     0.00000000    0.00000000    0.00000000
     atom   31 type  3   force =     0.00000000    0.00000000    0.00000000
     atom   32 type  3   force =     0.00000000    0.00000000    0.00000000
     atom   33 type  3   force =     0.00000000    0.00000000    0.00000000
     atom   34 type  3   force =     0.00000000    0.00000000    0.00000000
     atom   35 type  3   force =     0.00000000    0.00000000    0.00000000
     atom   36 type  3   force =     0.00000000    0.00000000    0.00000000
     atom   37 type  2   force =     0.00000000    0.00000000    0.00000000
     atom   38 type  2   force =     0.00000000    0.00000000    0.00000000
     atom   39 type  2   force =     0.00000000    0.00000000    0.00000000
     atom   40 type  2   force =     0.00000000    0.00000000    0.00000000
     atom   41 type  2   force =     0.00000000    0.00000000    0.00000000
     atom   42 type  2   force =     0.00000000    0.00000000    0.00000000
     atom   43 type  2   force =     0.00000000    0.00000000    0.00000000
     atom   44 type  2   force =     0.00000000    0.00000000    0.00000000
     atom   45 type  2   force =     0.00000000    0.00000000    0.00000000
     atom   46 type  2   force =     0.00000000    0.00000000    0.00000000
     atom   47 type  2   force =     0.00000000    0.00000000    0.00000000
     atom   48 type  2   force =     0.00000000    0.00000000    0.00000000
     atom   49 type  2   force =     0.00000000    0.00000000    0.00000000
     atom   50 type  2   force =     0.00000000    0.00000000    0.00000000
     atom   51 type  2   force =     0.00000000    0.00000000    0.00000000
     atom   52 type  2   force =     0.00000000    0.00000000    0.00000000
     atom   53 type  2   force =     0.00000000    0.00000000    0.00000000
     atom   54 type  2   force =     0.00000000    0.00000000    0.00000000
     atom   55 type  2   force =     0.00000000    0.00000000    0.00000000
     atom   56 type  2   force =     0.00000000    0.00000000    0.00000000
     atom   57 type  2   force =     0.00000000    0.00000000    0.00000000
     atom   58 type  2   force =     0.00000000    0.00000000    0.00000000
     atom   59 type  2   force =     0.00000000    0.00000000    0.00000000
     atom   60 type  2   force =     0.00000000    0.00000000    0.00000000
     atom   61 type  2   force =     0.00000000    0.00000000    0.00000000
     atom   62 type  2   force =     0.00000000    0.00000000    0.00000000
     atom   63 type  2   force =     0.00000000    0.00000000    0.00000000
     atom   64 type  2   force =     0.00000000    0.00000000    0.00000000
     atom   65 type  2   force =     0.00000000    0.00000000    0.00000000
     atom   66 type  2   force =     0.00000000    0.00000000    0.00000000
     atom   67 type  2   force =     0.00000000    0.00000000    0.00000000
     atom   68 type  2   force =     0.00000000    0.00000000    0.00000000
     atom   69 type  2   force =     0.00000000    0.00000000    0.00000000
     atom   70 type  2   force =     0.00000000    0.00000000    0.00000000
     atom   71 type  2   force =     0.00000000    0.00000000    0.00000000
     atom   72 type  2   force =     0.00000000    0.00000000    0.00000000
     The SCF correction term to forces
     atom    1 type  1   force =     0.00000059    0.00000028   -0.00000134
     atom    2 type  1   force =    -0.00000102   -0.00000035   -0.00000084
     atom    3 type  1   force =     0.00000039    0.00000113   -0.00000118
     atom    4 type  1   force =     0.00000008    0.00000036   -0.00000021
     atom    5 type  1   force =     0.00000028   -0.00000014   -0.00000084
     atom    6 type  1   force =    -0.00000035    0.00000092    0.00000007
     atom    7 type  1   force =     0.00000038    0.00000012   -0.00000026
     atom    8 type  1   force =    -0.00000146   -0.00000077   -0.00000107
     atom    9 type  1   force =     0.00000107   -0.00000138   -0.00000061
     atom   10 type  1   force =     0.00000044    0.00000104    0.00000270
     atom   11 type  1   force =    -0.00000044    0.00000262    0.00000101
     atom   12 type  1   force =    -0.00000135   -0.00000002    0.00000184
     atom   13 type  1   force =     0.00000091    0.00000041    0.00000084
     atom   14 type  1   force =    -0.00000221   -0.00000194    0.00000102
     atom   15 type  1   force =     0.00000183   -0.00000285    0.00000169
     atom   16 type  1   force =    -0.00000123    0.00000243    0.00000004
     atom   17 type  1   force =     0.00000160    0.00000141    0.00000082
     atom   18 type  1   force =    -0.00000004    0.00000090    0.00000104
     atom   19 type  1   force =     0.00000082   -0.00000075    0.00000121
     atom   20 type  1   force =    -0.00000100   -0.00000169    0.00000167
     atom   21 type  1   force =     0.00000020    0.00000073    0.00000099
     atom   22 type  1   force =    -0.00000086   -0.00000242   -0.00000032
     atom   23 type  1   force =     0.00000176   -0.00000050    0.00000039
     atom   24 type  1   force =     0.00000116    0.00000094   -0.00000032
     atom   25 type  1   force =    -0.00000076    0.00000066   -0.00000067
     atom   26 type  1   force =    -0.00000039    0.00000067   -0.00000032
     atom   27 type  1   force =     0.00000012   -0.00000003   -0.00000098
     atom   28 type  1   force =     0.00000054   -0.00000101   -0.00000149
     atom   29 type  1   force =    -0.00000081   -0.00000118    0.00000035
     atom   30 type  1   force =    -0.00000065    0.00000001    0.00000082
     atom   31 type  3   force =     0.00000044   -0.00000043    0.00000061
     atom   32 type  3   force =     0.00000064   -0.00000004    0.00000057
     atom   33 type  3   force =    -0.00000034    0.00000052   -0.00000033
     atom   34 type  3   force =    -0.00000049   -0.00000011   -0.00000098
     atom   35 type  3   force =     0.00000056    0.00000019   -0.00000043
     atom   36 type  3   force =    -0.00000025   -0.00000042   -0.00000100
     atom   37 type  2   force =     0.00000040    0.00000058    0.00000002
     atom   38 type  2   force =    -0.00000036    0.00000043   -0.00000004
     atom   39 type  2   force =    -0.00000005    0.00000053    0.00000026
     atom   40 type  2   force =     0.00000023    0.00000011   -0.00000017
     atom   41 type  2   force =    -0.00000019   -0.00000028   -0.00000036
     atom   42 type  2   force =    -0.00000006   -0.00000006   -0.00000020
     atom   43 type  2   force =     0.00000014   -0.00000016   -0.00000004
     atom   44 type  2   force =    -0.00000023   -0.00000054    0.00000000
     atom   45 type  2   force =     0.00000010   -0.00000042    0.00000035
     atom   46 type  2   force =    -0.00000011    0.00000029    0.00000016
     atom   47 type  2   force =    -0.00000009    0.00000042    0.00000003
     atom   48 type  2   force =     0.00000017    0.00000046    0.00000007
     atom   49 type  2   force =    -0.00000008    0.00000007    0.00000014
     atom   50 type  2   force =    -0.00000001    0.00000009    0.00000032
     atom   51 type  2   force =     0.00000009    0.00000023    0.00000005
     atom   52 type  2   force =    -0.00000014   -0.00000050   -0.00000012
     atom   53 type  2   force =    -0.00000007   -0.00000055   -0.00000005
     atom   54 type  2   force =     0.00000018   -0.00000045    0.00000004
     atom   55 type  2   force =     0.00000014    0.00000016   -0.00000025
     atom   56 type  2   force =     0.00000006    0.00000010   -0.00000068
     atom   57 type  2   force =    -0.00000019    0.00000028   -0.00000040
     atom   58 type  2   force =    -0.00000007   -0.00000000    0.00000001
     atom   59 type  2   force =    -0.00000003   -0.00000021   -0.00000025
     atom   60 type  2   force =     0.00000010   -0.00000017   -0.00000022
     atom   61 type  2   force =     0.00000013   -0.00000004   -0.00000013
     atom   62 type  2   force =    -0.00000023    0.00000001   -0.00000039
     atom   63 type  2   force =     0.00000009   -0.00000010   -0.00000015
     atom   64 type  2   force =     0.00000033    0.00000065    0.00000004
     atom   65 type  2   force =    -0.00000006    0.00000059    0.00000044
     atom   66 type  2   force =    -0.00000026    0.00000047    0.00000025
     atom   67 type  2   force =     0.00000010   -0.00000025    0.00000013
     atom   68 type  2   force =     0.00000009   -0.00000065    0.00000025
     atom   69 type  2   force =    -0.00000023   -0.00000060    0.00000004
     atom   70 type  2   force =     0.00000018    0.00000009    0.00000006
     atom   71 type  2   force =    -0.00000027   -0.00000007    0.00000060
     atom   72 type  2   force =     0.00000011   -0.00000005    0.00000003

     Total force =     0.000063     Total SCF correction =     0.000011
     SCF correction compared to forces is large: reduce conv_thr to get better values

     Computing stress (Cartesian axis) and pressure

          total   stress  (Ry/bohr**3)                   (kbar)     P=    0.02
   0.00000015  -0.00000000  -0.00000000          0.02     -0.00     -0.00
  -0.00000000   0.00000015  -0.00000000         -0.00      0.02     -0.00
  -0.00000000  -0.00000000   0.00000014         -0.00     -0.00      0.02

     kinetic stress (kbar)  31325.57     -0.07     -0.06
                               -0.07  31325.62     -0.02
                               -0.06     -0.02  31357.14

     local   stress (kbar)  -8649.81     -9.23   -449.46
                               -9.23  -7941.08    361.59
                             -449.46    361.59  -9787.40

     nonloc. stress (kbar)   -519.95      0.03      0.03
                                0.03   -519.95      0.05
                                0.03      0.05   -533.51

     hartree stress (kbar)  58587.92      4.75    220.62
                                4.75  58236.26   -177.93
                              220.62   -177.93  59091.63

     exc-cor stress (kbar) -12889.60      0.00      0.00
                                0.00 -12889.60     -0.00
                                0.00     -0.00 -12889.76

     corecor stress (kbar)   -248.57      0.00      0.00
                                0.00   -248.57     -0.00
                                0.00     -0.00   -248.60

     ewald   stress (kbar) -67605.54      4.52    228.88
                                4.52 -67962.65   -183.69
                              228.88   -183.69 -66989.48

     hubbard stress (kbar)      0.00      0.00      0.00
                                0.00      0.00      0.00
                                0.00      0.00      0.00

     london  stress (kbar)      0.00      0.00      0.00
                                0.00      0.00      0.00
                                0.00      0.00      0.00

     DFT-D3  stress (kbar)      0.00      0.00      0.00
                                0.00      0.00      0.00
                                0.00      0.00      0.00

     XDM     stress (kbar)      0.00      0.00      0.00
                                0.00      0.00      0.00
                                0.00      0.00      0.00

     dft-nl  stress (kbar)      0.00      0.00      0.00
                                0.00      0.00      0.00
                                0.00      0.00      0.00

     TS-vdW  stress (kbar)      0.00      0.00      0.00
                                0.00      0.00      0.00
                                0.00      0.00      0.00

     Writing output data file ZnO.save/

     General routines

     Parallel routines

   This run was terminated on:  14: 5: 5  19Oct2021

   JOB DONE.