     Program PWSCF v.6.4.1 starts on  8Nov2021 at 19:33:57

     K-points division:     npool     =       8
     R & G space division:  proc/nbgrp/npool/nimage =      16
     Waiting for input...
     Reading input from standard input
Warning: card &CELL ignored
Warning: card   CELL_DYNAMICS     = 'BFGS' ignored
Warning: card   PRESS_CONV_THR    = 0.5D0 ignored
Warning: card   CELL_DOFREE = 'ALL' ignored
Warning: card / ignored

     Current dimensions of program PWSCF are:
     Max number of different atomic species (ntypx) = 10
     Max number of k-points (npk) =  40000
     Max angular momentum in pseudopotentials (lmaxx) =  3

     bravais-lattice index     =            0
     lattice parameter (alat)  =      19.5815  a.u.
     unit-cell volume          =    5459.1992 (a.u.)^3
     number of atoms/cell      =           72
     number of atomic types    =            3
     number of electrons       =       816.00
     number of Kohn-Sham states=          490
     kinetic-energy cutoff     =      60.0000  Ry
     charge density cutoff     =     500.0000  Ry
     convergence threshold     =      1.0E-08
     mixing beta               =       0.5000
     number of iterations used =            8  plain     mixing
     Exchange-correlation      = SLA  PW   PSX  PSC ( 1  4 10  8 0 0)
     nstep                     =          200

     celldm(1)=  19.581452  celldm(2)=   0.000000  celldm(3)=   0.000000
     celldm(4)=   0.000000  celldm(5)=   0.000000  celldm(6)=   0.000000

     crystal axes: (cart. coord. in units of alat)
               a(1) = (   1.000000  -0.000655  -0.000032 )
               a(2) = (  -0.500566   0.865600   0.000179 )
               a(3) = (  -0.000039   0.000264   0.840314 )

     reciprocal axes: (cart. coord. in units 2 pi/alat)
               b(1) = (  1.000379  0.578507 -0.000136 )
               b(2) = (  0.000757  1.155706 -0.000363 )
               b(3) = (  0.000038 -0.000224  1.190031 )

     PseudoPot. # 1 for Zn read from file:
     ./GBRV_PBEsol/zn_pbesol_v1.uspp.F.UPF
     MD5 check sum: 7d8615e52efe7c1e2b1899de8658bae2
     Pseudo is Ultrasoft, Zval = 20.0
     Generated by new atomic code, or converted to UPF format
     Using radial grid of  943 points,  6 beta functions with:
                l(1) =   0
                l(2) =   0
                l(3) =   1
                l(4) =   1
                l(5) =   2
                l(6) =   2
     Q(r) pseudized with  8 coefficients,  rinner =    1.100   1.100   1.100
                                                       1.100   1.100

     PseudoPot. # 2 for O  read from file:
     ./GBRV_PBEsol/o_pbesol_v1.2.uspp.F.UPF
     MD5 check sum: 501638753501ef6325af9037351f7734
     Pseudo is Ultrasoft + core correction, Zval =  6.0
     Generated by new atomic code, or converted to UPF format
     Using radial grid of  737 points,  5 beta functions with:
                l(1) =   0
                l(2) =   0
                l(3) =   1
                l(4) =   1
                l(5) =   2
     Q(r) pseudized with  8 coefficients,  rinner =    0.900   0.900   0.900
                                                       0.900   0.900

     PseudoPot. # 3 for Mg read from file:
     ./GBRV_PBEsol/mg_pbesol_v1.4.uspp.F.UPF
     MD5 check sum: 4059f37963cf5867752dbf5ab2400678
     Pseudo is Ultrasoft, Zval = 10.0
     Generated by new atomic code, or converted to UPF format
     Using radial grid of  821 points,  7 beta functions with:
                l(1) =   0
                l(2) =   0
                l(3) =   0
                l(4) =   1
                l(5) =   1
                l(6) =   2
                l(7) =   2
     Q(r) pseudized with  8 coefficients,  rinner =    1.200   1.200   1.200
                                                       1.200   1.200

     atomic species   valence    mass     pseudopotential
        Zn            20.00    65.38000     Zn( 1.00)
        O              6.00    15.99900     O ( 1.00)
        Mg            10.00    24.30500     Mg( 1.00)

     No symmetry found

                                    s                        frac. trans.

      isym =  1     identity

 cryst.   s( 1) = (     1          0          0      )
                  (     0          1          0      )
                  (     0          0          1      )

 cart.    s( 1) = (  1.0000000  0.0000000 -0.0000000 )
                  ( -0.0000000  1.0000000  0.0000000 )
                  ( -0.0000000 -0.0000000  1.0000000 )

   Cartesian axes

     site n.     atom                  positions (alat units)
         1           Zn  tau(   1) = (   0.1668818   0.0969519   0.2132548  )
         2           Zn  tau(   2) = (   0.1666705   0.0966797   0.6324360  )
         3           Zn  tau(   3) = (   0.0000009   0.3845357   0.2107114  )
         4           Zn  tau(   4) = (  -0.0003256   0.3849179   0.6351829  )
         5           Zn  tau(   5) = (  -0.1669796   0.6742874   0.2126621  )
         6           Zn  tau(   6) = (  -0.1672157   0.6733625   0.6322388  )
         7           Zn  tau(   7) = (   0.4996456   0.0964836   0.2130137  )
         8           Zn  tau(   8) = (   0.5003605   0.0958227   0.6336673  )
         9           Zn  tau(   9) = (   0.3334948   0.3838240   0.2121261  )
        10           Mg  tau(  10) = (   0.3349155   0.3835131   0.6326701  )
        11           Mg  tau(  11) = (   0.1665976   0.6745884   0.2154213  )
        12           Zn  tau(  12) = (   0.1666144   0.6730216   0.6311984  )
        13           Zn  tau(  13) = (   0.8329475   0.0950923   0.2124819  )
        14           Mg  tau(  14) = (   0.8324164   0.0948135   0.6327925  )
        15           Zn  tau(  15) = (   0.6656108   0.3837059   0.2120754  )
        16           Mg  tau(  16) = (   0.6652215   0.3840950   0.6313253  )
        17           Mg  tau(  17) = (   0.4983915   0.6721804   0.2114355  )
        18           Mg  tau(  18) = (   0.4978096   0.6714039   0.6321175  )
        19           Zn  tau(  19) = (  -0.0001880   0.1936968   0.4223013  )
        20           Zn  tau(  20) = (   0.0006163   0.1930125   0.0024469  )
        21           Zn  tau(  21) = (  -0.1662112   0.4814788   0.4223234  )
        22           Mg  tau(  22) = (  -0.1661810   0.4814064   0.0017998  )
        23           Mg  tau(  23) = (  -0.3329915   0.7699242   0.4222161  )
        24           Mg  tau(  24) = (  -0.3319412   0.7708939   0.0033555  )
        25           Zn  tau(  25) = (   0.3337856   0.1926331   0.4233497  )
        26           Zn  tau(  26) = (   0.3333497   0.1920961   0.0009942  )
        27           Mg  tau(  27) = (   0.1657598   0.4798618   0.4244146  )
        28           Mg  tau(  28) = (   0.1665474   0.4801155   0.0033698  )
        29           Mg  tau(  29) = (  -0.0010567   0.7697553   0.4204837  )
        30           Zn  tau(  30) = (  -0.0002614   0.7685302   0.0014405  )
        31           Zn  tau(  31) = (   0.6658416   0.1918516   0.4244538  )
        32           Zn  tau(  32) = (   0.6661073   0.1922129   0.0016160  )
        33           Zn  tau(  33) = (   0.4990869   0.4800700   0.4237184  )
        34           Zn  tau(  34) = (   0.4999106   0.4793860   0.0017636  )
        35           Zn  tau(  35) = (   0.3322321   0.7681148   0.4224723  )
        36           Zn  tau(  36) = (   0.3319210   0.7682015   0.0031049  )
        37           O   tau(  37) = (   0.1666143   0.0967056   0.0029838  )
        38           O   tau(  38) = (   0.1667427   0.0966018   0.4222778  )
        39           O   tau(  39) = (   0.0001007   0.3850924   0.0024829  )
        40           O   tau(  40) = (  -0.0007527   0.3855250   0.4222999  )
        41           O   tau(  41) = (  -0.1667973   0.6737519   0.0018363  )
        42           O   tau(  42) = (  -0.1673396   0.6733908   0.4221927  )
        43           O   tau(  43) = (   0.4999074   0.0951962   0.0032013  )
        44           O   tau(  44) = (   0.4996259   0.0961772   0.4233262  )
        45           O   tau(  45) = (   0.3329028   0.3845809   0.0010307  )
        46           O   tau(  46) = (   0.3322301   0.3846745   0.4243916  )
        47           O   tau(  47) = (   0.1655619   0.6721127   0.0034058  )
        48           O   tau(  48) = (   0.1652093   0.6721977   0.4204598  )
        49           O   tau(  49) = (   0.8334187   0.0956558   0.0012870  )
        50           O   tau(  50) = (   0.8329102   0.0953204   0.4244301  )
        51           O   tau(  51) = (   0.6669360   0.3845874   0.0016523  )
        52           O   tau(  52) = (   0.6668104   0.3846273   0.4236952  )
        53           O   tau(  53) = (   0.5008457   0.6730499   0.0017998  )
        54           O   tau(  54) = (   0.5000908   0.6732529   0.4224487  )
        55           O   tau(  55) = (  -0.0005642   0.1922345   0.2132782  )
        56           O   tau(  56) = (  -0.0004659   0.1923102   0.6324596  )
        57           O   tau(  57) = (  -0.1671929   0.4812227   0.2107352  )
        58           O   tau(  58) = (  -0.1676362   0.4805657   0.6352060  )
        59           O   tau(  59) = (  -0.3349152   0.7691338   0.2126850  )
        60           O   tau(  60) = (  -0.3351657   0.7690838   0.6322624  )
        61           O   tau(  61) = (   0.3333981   0.1924350   0.2130374  )
        62           O   tau(  62) = (   0.3336516   0.1916220   0.6336903  )
        63           O   tau(  63) = (   0.1670622   0.4816341   0.2121499  )
        64           O   tau(  64) = (   0.1677508   0.4799929   0.6326936  )
        65           O   tau(  65) = (  -0.0001254   0.7695435   0.2154443  )
        66           O   tau(  66) = (  -0.0000479   0.7688542   0.6312219  )
        67           O   tau(  67) = (   0.6668564   0.1917088   0.2125054  )
        68           O   tau(  68) = (   0.6666259   0.1921473   0.6328162  )
        69           O   tau(  69) = (   0.4994105   0.4802348   0.2120991  )
        70           O   tau(  70) = (   0.4998426   0.4802016   0.6313487  )
        71           O   tau(  71) = (   0.3331353   0.7688801   0.2114589  )
        72           O   tau(  72) = (   0.3325514   0.7683690   0.6321411  )

   Crystallographic axes

     site n.     atom                  positions (cryst. coord.)
         1           Zn  tau(   1) = (  0.2230035  0.1120968  0.2537645  )
         2           Zn  tau(   2) = (  0.2225778  0.1116300  0.7526031  )
         3           Zn  tau(   3) = (  0.2224290  0.4443338  0.2506669  )
         4           Zn  tau(   4) = (  0.2222659  0.4446213  0.7558010  )
         5           Zn  tau(   5) = (  0.2230082  0.7790745  0.2529169  )
         6           Zn  tau(   6) = (  0.2221801  0.7778532  0.7522264  )
         7           Zn  tau(   7) = (  0.5556225  0.1118075  0.2534903  )
         8           Zn  tau(   8) = (  0.5558983  0.1108917  0.7540813  )
         9           Zn  tau(   9) = (  0.5556373  0.4437631  0.2523633  )
        10           Mg  tau(  10) = (  0.5568217  0.4432523  0.7528238  )
        11           Mg  tau(  11) = (  0.5568856  0.7796738  0.2562131  )
        12           Zn  tau(  12) = (  0.5559396  0.7777122  0.7510011  )
[...]
     atom   27 type  3   force =     0.00000000    0.00000000    0.00000000
     atom   28 type  3   force =     0.00000000    0.00000000    0.00000000
     atom   29 type  3   force =     0.00000000    0.00000000    0.00000000
     atom   30 type  1   force =     0.00000000    0.00000000    0.00000000
     atom   31 type  1   force =     0.00000000    0.00000000    0.00000000
     atom   32 type  1   force =     0.00000000    0.00000000    0.00000000
     atom   33 type  1   force =     0.00000000    0.00000000    0.00000000
     atom   34 type  1   force =     0.00000000    0.00000000    0.00000000
     atom   35 type  1   force =     0.00000000    0.00000000    0.00000000
     atom   36 type  1   force =     0.00000000    0.00000000    0.00000000
     atom   37 type  2   force =     0.00000000    0.00000000    0.00000000
     atom   38 type  2   force =     0.00000000    0.00000000    0.00000000
     atom   39 type  2   force =     0.00000000    0.00000000    0.00000000
     atom   40 type  2   force =     0.00000000    0.00000000    0.00000000
     atom   41 type  2   force =     0.00000000    0.00000000    0.00000000
     atom   42 type  2   force =     0.00000000    0.00000000    0.00000000
     atom   43 type  2   force =     0.00000000    0.00000000    0.00000000
     atom   44 type  2   force =     0.00000000    0.00000000    0.00000000
     atom   45 type  2   force =     0.00000000    0.00000000    0.00000000
     atom   46 type  2   force =     0.00000000    0.00000000    0.00000000
     atom   47 type  2   force =     0.00000000    0.00000000    0.00000000
     atom   48 type  2   force =     0.00000000    0.00000000    0.00000000
     atom   49 type  2   force =     0.00000000    0.00000000    0.00000000
     atom   50 type  2   force =     0.00000000    0.00000000    0.00000000
     atom   51 type  2   force =     0.00000000    0.00000000    0.00000000
     atom   52 type  2   force =     0.00000000    0.00000000    0.00000000
     atom   53 type  2   force =     0.00000000    0.00000000    0.00000000
     atom   54 type  2   force =     0.00000000    0.00000000    0.00000000
     atom   55 type  2   force =     0.00000000    0.00000000    0.00000000
     atom   56 type  2   force =     0.00000000    0.00000000    0.00000000
     atom   57 type  2   force =     0.00000000    0.00000000    0.00000000
     atom   58 type  2   force =     0.00000000    0.00000000    0.00000000
     atom   59 type  2   force =     0.00000000    0.00000000    0.00000000
     atom   60 type  2   force =     0.00000000    0.00000000    0.00000000
     atom   61 type  2   force =     0.00000000    0.00000000    0.00000000
     atom   62 type  2   force =     0.00000000    0.00000000    0.00000000
     atom   63 type  2   force =     0.00000000    0.00000000    0.00000000
     atom   64 type  2   force =     0.00000000    0.00000000    0.00000000
     atom   65 type  2   force =     0.00000000    0.00000000    0.00000000
     atom   66 type  2   force =     0.00000000    0.00000000    0.00000000
     atom   67 type  2   force =     0.00000000    0.00000000    0.00000000
     atom   68 type  2   force =     0.00000000    0.00000000    0.00000000
     atom   69 type  2   force =     0.00000000    0.00000000    0.00000000
     atom   70 type  2   force =     0.00000000    0.00000000    0.00000000
     atom   71 type  2   force =     0.00000000    0.00000000    0.00000000
     atom   72 type  2   force =     0.00000000    0.00000000    0.00000000
     The SCF correction term to forces
     atom    1 type  1   force =    -0.00000028   -0.00000424    0.00000000
     atom    2 type  1   force =     0.00000281   -0.00000352    0.00000000
     atom    3 type  1   force =     0.00000183    0.00000499    0.00000000
     atom    4 type  1   force =     0.00000206    0.00000146    0.00000000
     atom    5 type  1   force =    -0.00000329    0.00000546    0.00000000
     atom    6 type  1   force =    -0.00000520    0.00000496    0.00000000
     atom    7 type  1   force =     0.00000261    0.00000022    0.00000000
     atom    8 type  1   force =     0.00000178   -0.00000128    0.00000000
     atom    9 type  1   force =    -0.00000040   -0.00000073    0.00000000
     atom   10 type  3   force =    -0.00000006    0.00000086    0.00000000
     atom   11 type  3   force =     0.00000069   -0.00000018    0.00000000
     atom   12 type  1   force =    -0.00000030   -0.00000278    0.00000000
     atom   13 type  1   force =     0.00000087    0.00000284    0.00000000
     atom   14 type  3   force =    -0.00000042   -0.00000106    0.00000000
     atom   15 type  1   force =    -0.00000109    0.00000244    0.00000000
     atom   16 type  3   force =    -0.00000015    0.00000108    0.00000000
     atom   17 type  3   force =     0.00000068    0.00000009    0.00000000
     atom   18 type  3   force =     0.00000150    0.00000147    0.00000000
     atom   19 type  1   force =     0.00000149   -0.00000067    0.00000000
     atom   20 type  1   force =    -0.00000051   -0.00000244    0.00000000
     atom   21 type  1   force =    -0.00000470    0.00000167    0.00000000
     atom   22 type  3   force =    -0.00000049    0.00000135    0.00000000
     atom   23 type  3   force =     0.00000008   -0.00000080    0.00000000
     atom   24 type  3   force =     0.00000047   -0.00000013    0.00000000
     atom   25 type  1   force =     0.00000014   -0.00000264    0.00000000
     atom   26 type  1   force =     0.00000360   -0.00000681    0.00000000
     atom   27 type  3   force =    -0.00000000    0.00000026    0.00000000
     atom   28 type  3   force =     0.00000019    0.00000100    0.00000000
     atom   29 type  3   force =    -0.00000145    0.00000174    0.00000000
     atom   30 type  1   force =    -0.00000169    0.00000565    0.00000000
     atom   31 type  1   force =    -0.00000084   -0.00000183    0.00000000
     atom   32 type  1   force =    -0.00000263   -0.00000247    0.00000000
     atom   33 type  1   force =     0.00000045    0.00000003    0.00000000
     atom   34 type  1   force =    -0.00000178   -0.00000073    0.00000000
     atom   35 type  1   force =     0.00000210   -0.00000056    0.00000000
     atom   36 type  1   force =     0.00000100   -0.00000220    0.00000000
     atom   37 type  2   force =    -0.00000009   -0.00000197    0.00000000
     atom   38 type  2   force =    -0.00000015   -0.00000129    0.00000000
     atom   39 type  2   force =    -0.00000013    0.00000088    0.00000000
     atom   40 type  2   force =     0.00000037    0.00000147    0.00000000
     atom   41 type  2   force =    -0.00000136    0.00000192    0.00000000
     atom   42 type  2   force =    -0.00000178    0.00000162    0.00000000
     atom   43 type  2   force =     0.00000078   -0.00000027    0.00000000
     atom   44 type  2   force =    -0.00000031   -0.00000175    0.00000000
     atom   45 type  2   force =    -0.00000028   -0.00000105    0.00000000
     atom   46 type  2   force =    -0.00000011   -0.00000008    0.00000000
     atom   47 type  2   force =     0.00000008   -0.00000058    0.00000000
     atom   48 type  2   force =     0.00000033   -0.00000018    0.00000000
     atom   49 type  2   force =    -0.00000042   -0.00000121    0.00000000
     atom   50 type  2   force =     0.00000044   -0.00000047    0.00000000
     atom   51 type  2   force =     0.00000026    0.00000030    0.00000000
     atom   52 type  2   force =    -0.00000082   -0.00000072    0.00000000
     atom   53 type  2   force =     0.00000034   -0.00000035    0.00000000
     atom   54 type  2   force =     0.00000092    0.00000013    0.00000000
     atom   55 type  2   force =     0.00000057    0.00000094    0.00000000
     atom   56 type  2   force =     0.00000033   -0.00000047    0.00000000
     atom   57 type  2   force =    -0.00000057    0.00000250    0.00000000
     atom   58 type  2   force =    -0.00000061    0.00000126    0.00000000
     atom   59 type  2   force =    -0.00000107    0.00000032    0.00000000
     atom   60 type  2   force =    -0.00000078    0.00000023    0.00000000
     atom   61 type  2   force =     0.00000048   -0.00000187    0.00000000
     atom   62 type  2   force =     0.00000114   -0.00000119    0.00000000
     atom   63 type  2   force =     0.00000078    0.00000098    0.00000000
     atom   64 type  2   force =     0.00000117   -0.00000036    0.00000000
     atom   65 type  2   force =     0.00000034    0.00000025    0.00000000
     atom   66 type  2   force =    -0.00000083    0.00000001    0.00000000
     atom   67 type  2   force =    -0.00000034    0.00000036    0.00000000
     atom   68 type  2   force =    -0.00000010   -0.00000108    0.00000000
     atom   69 type  2   force =    -0.00000026    0.00000097    0.00000000
     atom   70 type  2   force =     0.00000066   -0.00000019    0.00000000
     atom   71 type  2   force =     0.00000046    0.00000035    0.00000000
     atom   72 type  2   force =     0.00000063    0.00000030    0.00000000

     Total force =     0.000068     Total SCF correction =     0.000021
     SCF correction compared to forces is large: reduce conv_thr to get better values

     Computing stress (Cartesian axis) and pressure

          total   stress  (Ry/bohr**3)                   (kbar)     P=    1.56
   0.00001219   0.00000005  -0.00000000          1.79      0.01     -0.00
   0.00000005   0.00001214  -0.00000000          0.01      1.79     -0.00
  -0.00000000  -0.00000000   0.00000755         -0.00     -0.00      1.11

     kinetic stress (kbar)  30392.75     -0.17     -0.00
                               -0.17  30394.24     -0.15
                               -0.00     -0.15  30558.77

     local   stress (kbar)  -4682.95    553.31   -360.88
                              553.31   3098.51  -1219.69
                             -360.88  -1219.69 -27334.57

     nonloc. stress (kbar)    644.75     -0.31     -0.04
                               -0.31    642.94      0.13
                               -0.04      0.13    592.72

     hartree stress (kbar)  51224.77   -265.07    177.27
                             -265.07  47404.26    594.04
                              177.27    594.04  61627.69

     exc-cor stress (kbar) -12298.13     -0.03     -0.00
                               -0.03 -12298.17      0.00
                               -0.00      0.00 -12298.10

     corecor stress (kbar)   -261.99      0.00     -0.00
                                0.00   -262.00      0.00
                               -0.00      0.00   -262.28

     ewald   stress (kbar) -65017.41   -287.72    183.66
                             -287.72 -68977.99    625.66
                              183.66    625.66 -52883.12

     hubbard stress (kbar)      0.00      0.00      0.00
                                0.00      0.00      0.00
                                0.00      0.00      0.00

     london  stress (kbar)      0.00      0.00      0.00
                                0.00      0.00      0.00
                                0.00      0.00      0.00

     DFT-D3  stress (kbar)      0.00      0.00      0.00
                                0.00      0.00      0.00
                                0.00      0.00      0.00

     XDM     stress (kbar)      0.00      0.00      0.00
                                0.00      0.00      0.00
                                0.00      0.00      0.00

     dft-nl  stress (kbar)      0.00      0.00      0.00
                                0.00      0.00      0.00
                                0.00      0.00      0.00

     TS-vdW  stress (kbar)      0.00      0.00      0.00
                                0.00      0.00      0.00
                                0.00      0.00      0.00

     Message from routine bfgs:
     history already reset at previous step: stopping

     bfgs converged in   4 scf cycles and   3 bfgs steps
     (criteria: energy <  1.0E-07 Ry, force <  1.0E-06 Ry/Bohr)

     End of BFGS Geometry Optimization

     Final energy   =  -13735.8781654866 Ry
Begin final coordinates

ATOMIC_POSITIONS (crystal)
Zn       0.223003961   0.112096134   0.253764456    1   1   0
Zn       0.222576727   0.111629354   0.752603131    1   1   0
Zn       0.222427764   0.444331106   0.250666931    1   1   0
Zn       0.222264504   0.444620144   0.755800981    1   1   0
Zn       0.223007238   0.779071773   0.252916922    1   1   0
Zn       0.222180518   0.777851927   0.752226389    1   1   0
Zn       0.555620114   0.111806551   0.253490255    1   1   0
Zn       0.555897498   0.110892213   0.754081265    1   1   0
Zn       0.555638599   0.443764802   0.252363329    1   1   0
Mg       0.556822031   0.443252845   0.752823753    1   1   0
Mg       0.556885389   0.779674196   0.256213086    1   1   0
Zn       0.555940441   0.777713748   0.751001061    1   1   0
Zn       0.888244242   0.110449249   0.252870463    1   1   0
Mg       0.887495702   0.109976222   0.753053201    1   1   0
Zn       0.887810131   0.443877512   0.252315633    1   1   0
Mg       0.887589426   0.444176847   0.751235949    1   1   0
Mg       0.887412566   0.777143012   0.251483070    1   1   0
Mg       0.886324823   0.776093474   0.752107900    1   1   0
Zn       0.111809177   0.223702378   0.502508158    1   1   0
Zn       0.112275809   0.223065199   0.002868607    1   1   0
Zn       0.112209179   0.556168936   0.502463684    1   1   0
Mg       0.112251504   0.556236175   0.002027559    1   1   0
Mg       0.112232264   0.889399956   0.502264893    1   1   0
Mg       0.113900927   0.890674051   0.003807639    1   1   0
Zn       0.445294463   0.222727299   0.503768826    1   1   0
Zn       0.444605789   0.222261055   0.001152786    1   1   0
Mg       0.443367872   0.554551103   0.504965214    1   1   0
Mg       0.444360760   0.554998143   0.003908814    1   1   0
Mg       0.444195737   0.889458665   0.500216030    1   1   0
Zn       0.444337655   0.888193733   0.001541835    1   1   0
Zn       0.777024875   0.222075518   0.505095496    1   1   0
Zn       0.777555257   0.222644984   0.001905416    1   1   0
Zn       0.776943071   0.555045156   0.504149371    1   1   0
Zn       0.777429924   0.554409164   0.002010229    1   1   0
Zn       0.776660483   0.887812332   0.502595500    1   1   0
Zn       0.776457271   0.888065538   0.003535283    1   1   0
O        0.222623867   0.111890127   0.003535506    1   1   0
O        0.222634081   0.111616694   0.502508329    1   1   0
O        0.222879030   0.445051773   0.002868399    1   1   0
O        0.222216579   0.445398006   0.502463505    1   1   0
O        0.222910902   0.778531052   0.002027785    1   1   0
O        0.222101417   0.777959828   0.502264992    1   1   0
O        0.555165403   0.110394594   0.003807334    1   1   0
O        0.555398072   0.111379737   0.503768822    1   1   0
O        0.555513554   0.444715479   0.001152997    1   1   0
O        0.554836304   0.444668477   0.504965579    1   1   0
O        0.554447069   0.776891393   0.003908654    1   1   0
O        0.554086693   0.776836072   0.500215786    1   1   0
O        0.889072486   0.111180123   0.001541877    1   1   0
O        0.888311226   0.110637627   0.505095291    1   1   0
O        0.889673665   0.444974456   0.001905449    1   1   0
O        0.889517614   0.444870109   0.504149601    1   1   0
O        0.890399870   0.778227001   0.002009968    1   1   0
O        0.889703886   0.778307572   0.502595144    1   1   0
O        0.110613492   0.222085593   0.253764605    1   1   0
O        0.110701270   0.222024124   0.752603391    1   1   0
O        0.111104440   0.555946729   0.250667155    1   1   0
O        0.110225204   0.555035203   0.755800732    1   1   0
O        0.109878705   0.888560829   0.252916528    1   1   0
O        0.109542333   0.888351212   0.752226684    1   1   0
O        0.444821602   0.222575523   0.253490648    1   1   0
O        0.444545569   0.221480710   0.754080858    1   1   0
O        0.445725275   0.556676404   0.252363309    1   1   0
O        0.445407444   0.554629758   0.752823803    1   1   0
O        0.445030216   0.889288145   0.256212833    1   1   0
O        0.444654935   0.888341142   0.751001238    1   1   0
O        0.777984257   0.221985272   0.252870411    1   1   0
O        0.777950458   0.222341270   0.753053231    1   1   0
O        0.777390166   0.555310571   0.252315815    1   1   0
O        0.777746839   0.555123207   0.751235844    1   1   0
O        0.778035400   0.888774291   0.251482883    1   1   0
O        0.777096985   0.888029403   0.752107869    1   1   0
End final coordinates

     Writing output data file ZnO.save/

     General routines

     Parallel routines

   This run was terminated on:  20: 7:28   8Nov2021

   JOB DONE.