     Program PWSCF v.6.4.1 starts on 16Jun2022 at 19:51:43

     K-points division:     npool     =       4
     R & G space division:  proc/nbgrp/npool/nimage =      16
     Waiting for input...
     Reading input from standard input

     Current dimensions of program PWSCF are:
     Max number of different atomic species (ntypx) = 10
     Max number of k-points (npk) =  40000
     Max angular momentum in pseudopotentials (lmaxx) =  3

     bravais-lattice index     =            0
     lattice parameter (alat)  =       6.4742  a.u.
     unit-cell volume          =     305.7999 (a.u.)^3
     number of atoms/cell      =            4
     number of atomic types    =            3
     number of electrons       =        42.00
     number of Kohn-Sham states=           21
     kinetic-energy cutoff     =      80.0000  Ry
     charge density cutoff     =     600.0000  Ry
     convergence threshold     =      1.0E-06
     mixing beta               =       0.5000
     number of iterations used =            8  plain     mixing
     Exchange-correlation      = SLA  PW   PSX  PSC ( 1  4 10  8 0 0)
     nstep                     =          200

     celldm(1)=   6.474186  celldm(2)=   0.000000  celldm(3)=   0.000000
     celldm(4)=   0.000000  celldm(5)=   0.000000  celldm(6)=   0.000000

     crystal axes: (cart. coord. in units of alat)
               a(1) = (   1.000000   0.000000   0.000000 )
               a(2) = (  -0.500000   0.866025   0.000000 )
               a(3) = (  -0.000000  -0.000000   1.301222 )

     reciprocal axes: (cart. coord. in units 2 pi/alat)
               b(1) = (  1.000000  0.577350  0.000000 )
               b(2) = ( -0.000000  1.154701  0.000000 )
               b(3) = ( -0.000000 -0.000000  0.768508 )

     PseudoPot. # 1 for Mg read from file:
     ./GBRV_PBEsol/mg_pbesol_v1.4.uspp.F.UPF
     MD5 check sum: 4059f37963cf5867752dbf5ab2400678
     Pseudo is Ultrasoft, Zval = 10.0
     Generated by new atomic code, or converted to UPF format
     Using radial grid of  821 points,  7 beta functions with:
                l(1) =   0
                l(2) =   0
                l(3) =   0
                l(4) =   1
                l(5) =   1
                l(6) =   2
                l(7) =   2
     Q(r) pseudized with  8 coefficients,  rinner =    1.200   1.200   1.200
                                                       1.200   1.200

     PseudoPot. # 2 for Zn read from file:
     ./GBRV_PBEsol/zn_pbesol_v1.uspp.F.UPF
     MD5 check sum: 7d8615e52efe7c1e2b1899de8658bae2
     Pseudo is Ultrasoft, Zval = 20.0
     Generated by new atomic code, or converted to UPF format
     Using radial grid of  943 points,  6 beta functions with:
                l(1) =   0
                l(2) =   0
                l(3) =   1
                l(4) =   1
                l(5) =   2
                l(6) =   2
     Q(r) pseudized with  8 coefficients,  rinner =    1.100   1.100   1.100
                                                       1.100   1.100

     PseudoPot. # 3 for O  read from file:
     ./GBRV_PBEsol/o_pbesol_v1.2.uspp.F.UPF
     MD5 check sum: 501638753501ef6325af9037351f7734
     Pseudo is Ultrasoft + core correction, Zval =  6.0
     Generated by new atomic code, or converted to UPF format
     Using radial grid of  737 points,  5 beta functions with:
                l(1) =   0
                l(2) =   0
                l(3) =   1
                l(4) =   1
                l(5) =   2
     Q(r) pseudized with  8 coefficients,  rinner =    0.900   0.900   0.900
                                                       0.900   0.900

     atomic species   valence    mass     pseudopotential
        Mg            10.00    24.30500     Mg( 1.00)
        Zn            20.00    65.38000     Zn( 1.00)
        O              6.00    15.99900     O ( 1.00)

     No symmetry found

                                    s                        frac. trans.

      isym =  1     identity

 cryst.   s( 1) = (     1          0          0      )
                  (     0          1          0      )
                  (     0          0          1      )

 cart.    s( 1) = (  1.0000000  0.0000000  0.0000000 )
                  ( -0.0000000  1.0000000  0.0000000 )
                  (  0.0000000 -0.0000000  1.0000000 )

   Cartesian axes

     site n.     atom                  positions (alat units)
         1           O   tau(   1) = (   0.5000002   0.2886755   0.0095587  )
         2           O   tau(   2) = (   0.0000002   0.5773492   0.6601695  )
         3           Zn  tau(   3) = (   0.5000000   0.2886747   0.7078569  )
         4           Mg  tau(   4) = (  -0.0000001   0.5773509   1.3627419  )

   Crystallographic axes

     site n.     atom                  positions (cryst. coord.)
         1           O   tau(   1) = (  0.6666670  0.3333337  0.0073459  )
         2           O   tau(   2) = (  0.3333329  0.6666657  0.5073458  )
         3           Zn  tau(   3) = (  0.6666664  0.3333329  0.5439939  )
         4           Mg  tau(   4) = (  0.3333336  0.6666677  1.0472785  )

     number of k points=   260
                       cart. coord. in units 2pi/alat
        k(    1) = (   0.0000000   0.0000000   0.0000000), wk =   0.0039062
        k(    2) = (  -0.0000000  -0.0000000   0.0960636), wk =   0.0078125
        k(    3) = (  -0.0000000  -0.0000000   0.1921271), wk =   0.0078125
        k(    4) = (  -0.0000000  -0.0000000   0.2881907), wk =   0.0078125
        k(    5) = (   0.0000000   0.0000001  -0.3842542), wk =   0.0039062
        k(    6) = (  -0.0000000   0.1443376   0.0000000), wk =   0.0078125
        k(    7) = (  -0.0000000   0.1443376   0.0960636), wk =   0.0078125
        k(    8) = (  -0.0000000   0.1443376   0.1921271), wk =   0.0078125
        k(    9) = (  -0.0000000   0.1443376   0.2881907), wk =   0.0078125
        k(   10) = (  -0.0000000   0.1443377  -0.3842542), wk =   0.0078125
        k(   11) = (  -0.0000000   0.1443376  -0.2881906), wk =   0.0078125
        k(   12) = (  -0.0000000   0.1443376  -0.1921271), wk =   0.0078125
        k(   13) = (  -0.0000000   0.1443376  -0.0960635), wk =   0.0078125
        k(   14) = (  -0.0000001   0.2886752   0.0000000), wk =   0.0078125
        k(   15) = (  -0.0000001   0.2886752   0.0960636), wk =   0.0078125
        k(   16) = (  -0.0000001   0.2886752   0.1921271), wk =   0.0078125
        k(   17) = (  -0.0000001   0.2886751   0.2881907), wk =   0.0078125
        k(   18) = (  -0.0000001   0.2886752  -0.3842542), wk =   0.0078125
        k(   19) = (  -0.0000001   0.2886752  -0.2881906), wk =   0.0078125
        k(   20) = (  -0.0000001   0.2886752  -0.1921271), wk =   0.0078125
        k(   21) = (  -0.0000001   0.2886752  -0.0960635), wk =   0.0078125
        k(   22) = (  -0.0000001   0.4330128   0.0000001), wk =   0.0078125
        k(   23) = (  -0.0000001   0.4330128   0.0960636), wk =   0.0078125
        k(   24) = (  -0.0000001   0.4330128   0.1921272), wk =   0.0078125
        k(   25) = (  -0.0000001   0.4330127   0.2881907), wk =   0.0078125
        k(   26) = (  -0.0000001   0.4330128  -0.3842541), wk =   0.0078125
        k(   27) = (  -0.0000001   0.4330128  -0.2881906), wk =   0.0078125
        k(   28) = (  -0.0000001   0.4330128  -0.1921270), wk =   0.0078125
        k(   29) = (  -0.0000001   0.4330128  -0.0960635), wk =   0.0078125
        k(   30) = (   0.0000001  -0.5773504  -0.0000001), wk =   0.0039062
        k(   31) = (   0.0000001  -0.5773504   0.0960635), wk =   0.0078125
        k(   32) = (   0.0000001  -0.5773504   0.1921270), wk =   0.0078125
        k(   33) = (   0.0000001  -0.5773504   0.2881906), wk =   0.0078125
        k(   34) = (   0.0000002  -0.5773503  -0.3842543), wk =   0.0039062
        k(   35) = (   0.1250000   0.0721688   0.0000000), wk =   0.0078125
        k(   36) = (   0.1250000   0.0721688   0.0960636), wk =   0.0078125
        k(   37) = (   0.1250000   0.0721687   0.1921271), wk =   0.0078125
        k(   38) = (   0.1250000   0.0721687   0.2881907), wk =   0.0078125
        k(   39) = (   0.1250000   0.0721688  -0.3842542), wk =   0.0078125
        k(   40) = (   0.1250000   0.0721688  -0.2881906), wk =   0.0078125
        k(   41) = (   0.1250000   0.0721688  -0.1921271), wk =   0.0078125
        k(   42) = (   0.1250000   0.0721688  -0.0960635), wk =   0.0078125
        k(   43) = (   0.1249999   0.2165064   0.0000000), wk =   0.0078125
        k(   44) = (   0.1249999   0.2165063   0.0960636), wk =   0.0078125
        k(   45) = (   0.1249999   0.2165063   0.1921271), wk =   0.0078125
        k(   46) = (   0.1249999   0.2165063   0.2881907), wk =   0.0078125
        k(   47) = (   0.1250000   0.2165064  -0.3842542), wk =   0.0078125
        k(   48) = (   0.1250000   0.2165064  -0.2881906), wk =   0.0078125
        k(   49) = (   0.1250000   0.2165064  -0.1921271), wk =   0.0078125
        k(   50) = (   0.1250000   0.2165064  -0.0960635), wk =   0.0078125
        k(   51) = (   0.1249999   0.3608440   0.0000001), wk =   0.0078125
        k(   52) = (   0.1249999   0.3608439   0.0960636), wk =   0.0078125
        k(   53) = (   0.1249999   0.3608439   0.1921272), wk =   0.0078125
        k(   54) = (   0.1249999   0.3608439   0.2881907), wk =   0.0078125
        k(   55) = (   0.1249999   0.3608440  -0.3842542), wk =   0.0078125
        k(   56) = (   0.1249999   0.3608440  -0.2881906), wk =   0.0078125
        k(   57) = (   0.1249999   0.3608440  -0.1921271), wk =   0.0078125
        k(   58) = (   0.1249999   0.3608440  -0.0960635), wk =   0.0078125
        k(   59) = (   0.1249999   0.5051816   0.0000001), wk =   0.0078125
        k(   60) = (   0.1249999   0.5051815   0.0960636), wk =   0.0078125
[...]
        k(  246) = (  -0.5000000   0.0000002  -0.1921271), wk =   0.0078125
        k(  247) = (  -0.5000000   0.0000001  -0.0960636), wk =   0.0078125
        k(  248) = (  -0.5000000   0.1443377   0.0000000), wk =   0.0078125
        k(  249) = (  -0.5000000   0.1443377   0.0960636), wk =   0.0078125
        k(  250) = (  -0.5000000   0.1443377   0.1921271), wk =   0.0078125
        k(  251) = (  -0.5000000   0.1443377   0.2881907), wk =   0.0078125
        k(  252) = (  -0.5000000   0.1443378  -0.3842542), wk =   0.0078125
        k(  253) = (  -0.5000000   0.1443378  -0.2881907), wk =   0.0078125
        k(  254) = (  -0.5000000   0.1443377  -0.1921271), wk =   0.0078125
        k(  255) = (  -0.5000000   0.1443377  -0.0960635), wk =   0.0078125
        k(  256) = (  -0.4999998  -0.8660254  -0.0000001), wk =   0.0039062
        k(  257) = (  -0.4999998  -0.8660255   0.0960634), wk =   0.0078125
        k(  258) = (  -0.4999998  -0.8660255   0.1921270), wk =   0.0078125
        k(  259) = (  -0.4999998  -0.8660255   0.2881905), wk =   0.0078125
        k(  260) = (  -0.4999998  -0.8660254  -0.3842543), wk =   0.0039062

                       cryst. coord.
        k(    1) = (   0.0000000   0.0000000   0.0000000), wk =   0.0039062
        k(    2) = (  -0.0000000  -0.0000000   0.1250000), wk =   0.0078125
        k(    3) = (  -0.0000000  -0.0000000   0.2500000), wk =   0.0078125
[...]
        k(   23) = (  -0.0000001   0.4328727   0.0960861), wk =   0.0078125
        k(   24) = (  -0.0000001   0.4328727   0.1921722), wk =   0.0078125
        k(   25) = (  -0.0000001   0.4328727   0.2882582), wk =   0.0078125
        k(   26) = (  -0.0000001   0.4328728  -0.3843440), wk =   0.0078125
        k(   27) = (  -0.0000001   0.4328728  -0.2882580), wk =   0.0078125
        k(   28) = (  -0.0000001   0.4328728  -0.1921720), wk =   0.0078125
        k(   29) = (  -0.0000001   0.4328727  -0.0960859), wk =   0.0078125
        k(   30) = (   0.0000001  -0.5771637  -0.0000001), wk =   0.0039062
        k(   31) = (   0.0000001  -0.5771637   0.0960859), wk =   0.0078125
        k(   32) = (   0.0000001  -0.5771637   0.1921719), wk =   0.0078125
        k(   33) = (   0.0000001  -0.5771637   0.2882580), wk =   0.0078125
        k(   34) = (   0.0000001  -0.5771636  -0.3843443), wk =   0.0039062
        k(   35) = (   0.1249596   0.0721454   0.0000000), wk =   0.0078125
        k(   36) = (   0.1249596   0.0721454   0.0960861), wk =   0.0078125
        k(   37) = (   0.1249596   0.0721454   0.1921721), wk =   0.0078125
        k(   38) = (   0.1249596   0.0721454   0.2882581), wk =   0.0078125
        k(   39) = (   0.1249596   0.0721455  -0.3843441), wk =   0.0078125
        k(   40) = (   0.1249596   0.0721454  -0.2882581), wk =   0.0078125
        k(   41) = (   0.1249596   0.0721454  -0.1921720), wk =   0.0078125
        k(   42) = (   0.1249596   0.0721454  -0.0960860), wk =   0.0078125
        k(   43) = (   0.1249596   0.2164363   0.0000001), wk =   0.0078125
        k(   44) = (   0.1249595   0.2164363   0.0960861), wk =   0.0078125
        k(   45) = (   0.1249595   0.2164363   0.1921721), wk =   0.0078125
        k(   46) = (   0.1249595   0.2164363   0.2882582), wk =   0.0078125
        k(   47) = (   0.1249596   0.2164364  -0.3843441), wk =   0.0078125
        k(   48) = (   0.1249596   0.2164364  -0.2882580), wk =   0.0078125
        k(   49) = (   0.1249596   0.2164364  -0.1921720), wk =   0.0078125
        k(   50) = (   0.1249596   0.2164364  -0.0960860), wk =   0.0078125
        k(   51) = (   0.1249595   0.3607273   0.0000001), wk =   0.0078125
        k(   52) = (   0.1249595   0.3607273   0.0960861), wk =   0.0078125
        k(   53) = (   0.1249595   0.3607272   0.1921722), wk =   0.0078125
        k(   54) = (   0.1249595   0.3607272   0.2882582), wk =   0.0078125
        k(   55) = (   0.1249595   0.3607273  -0.3843440), wk =   0.0078125
        k(   56) = (   0.1249595   0.3607273  -0.2882580), wk =   0.0078125
        k(   57) = (   0.1249595   0.3607273  -0.1921720), wk =   0.0078125
        k(   58) = (   0.1249595   0.3607273  -0.0960859), wk =   0.0078125
        k(   59) = (   0.1249595   0.5050182   0.0000001), wk =   0.0078125
        k(   60) = (   0.1249595   0.5050182   0.0960862), wk =   0.0078125
[...]
        k(  246) = (  -0.4998384   0.0000001  -0.1921721), wk =   0.0078125
        k(  247) = (  -0.4998384   0.0000001  -0.0960860), wk =   0.0078125
        k(  248) = (  -0.4998384   0.1442910   0.0000000), wk =   0.0078125
        k(  249) = (  -0.4998384   0.1442910   0.0960861), wk =   0.0078125
        k(  250) = (  -0.4998384   0.1442910   0.1921721), wk =   0.0078125
        k(  251) = (  -0.4998384   0.1442910   0.2882581), wk =   0.0078125
        k(  252) = (  -0.4998384   0.1442910  -0.3843441), wk =   0.0078125
        k(  253) = (  -0.4998384   0.1442910  -0.2882581), wk =   0.0078125
        k(  254) = (  -0.4998384   0.1442910  -0.1921720), wk =   0.0078125
        k(  255) = (  -0.4998384   0.1442910  -0.0960860), wk =   0.0078125
        k(  256) = (  -0.4998382  -0.8657454  -0.0000002), wk =   0.0039062
        k(  257) = (  -0.4998382  -0.8657454   0.0960858), wk =   0.0078125
        k(  258) = (  -0.4998382  -0.8657454   0.1921719), wk =   0.0078125
        k(  259) = (  -0.4998382  -0.8657454   0.2882579), wk =   0.0078125
        k(  260) = (  -0.4998382  -0.8657454  -0.3843443), wk =   0.0039062

                       cryst. coord.
        k(    1) = (   0.0000000   0.0000000   0.0000000), wk =   0.0039062
        k(    2) = (  -0.0000000  -0.0000000   0.1250000), wk =   0.0078125
        k(    3) = (  -0.0000000  -0.0000000   0.2500000), wk =   0.0078125
        k(    4) = (  -0.0000000   0.0000000   0.3750000), wk =   0.0078125
        k(    5) = (   0.0000000   0.0000000  -0.5000000), wk =   0.0039062
        k(    6) = (  -0.0000000   0.1250000   0.0000000), wk =   0.0078125
        k(    7) = (  -0.0000000   0.1250000   0.1250000), wk =   0.0078125
        k(    8) = (  -0.0000000   0.1250000   0.2500000), wk =   0.0078125
        k(    9) = (  -0.0000000   0.1250000   0.3750000), wk =   0.0078125
        k(   10) = (  -0.0000000   0.1250000  -0.5000000), wk =   0.0078125
        k(   11) = (  -0.0000000   0.1250000  -0.3750000), wk =   0.0078125
        k(   12) = (  -0.0000000   0.1250000  -0.2500000), wk =   0.0078125
        k(   13) = (  -0.0000000   0.1250000  -0.1250000), wk =   0.0078125
        k(   14) = (  -0.0000000   0.2500000   0.0000000), wk =   0.0078125
        k(   15) = (  -0.0000000   0.2500000   0.1250000), wk =   0.0078125
        k(   16) = (  -0.0000000   0.2500000   0.2500000), wk =   0.0078125
        k(   17) = (  -0.0000000   0.2500000   0.3750000), wk =   0.0078125
        k(   18) = (  -0.0000000   0.2500000  -0.5000000), wk =   0.0078125
        k(   19) = (   0.0000000   0.2500000  -0.3750000), wk =   0.0078125
        k(   20) = (  -0.0000000   0.2500000  -0.2500000), wk =   0.0078125
        k(   21) = (  -0.0000000   0.2500000  -0.1250000), wk =   0.0078125
        k(   22) = (  -0.0000000   0.3750000   0.0000000), wk =   0.0078125
        k(   23) = (  -0.0000000   0.3750000   0.1250000), wk =   0.0078125
        k(   24) = (  -0.0000000   0.3750000   0.2500000), wk =   0.0078125
        k(   25) = (  -0.0000000   0.3750000   0.3750000), wk =   0.0078125
        k(   26) = (  -0.0000000   0.3750000  -0.5000000), wk =   0.0078125
        k(   27) = (  -0.0000000   0.3750000  -0.3750000), wk =   0.0078125
        k(   28) = (  -0.0000000   0.3750000  -0.2500000), wk =   0.0078125
        k(   29) = (  -0.0000000   0.3750000  -0.1250000), wk =   0.0078125
        k(   30) = (   0.0000000  -0.5000000  -0.0000000), wk =   0.0039062
        k(   31) = (   0.0000000  -0.5000000   0.1250000), wk =   0.0078125
        k(   32) = (   0.0000000  -0.5000000   0.2500000), wk =   0.0078125
        k(   33) = (   0.0000000  -0.5000000   0.3750000), wk =   0.0078125
        k(   34) = (   0.0000000  -0.5000000  -0.5000000), wk =   0.0039062
        k(   35) = (   0.1250000  -0.0000000   0.0000000), wk =   0.0078125
        k(   36) = (   0.1250000  -0.0000000   0.1250000), wk =   0.0078125
        k(   37) = (   0.1250000   0.0000000   0.2500000), wk =   0.0078125
        k(   38) = (   0.1250000  -0.0000000   0.3750000), wk =   0.0078125
        k(   39) = (   0.1250000   0.0000000  -0.5000000), wk =   0.0078125
        k(   40) = (   0.1250000   0.0000000  -0.3750000), wk =   0.0078125
        k(   41) = (   0.1250000   0.0000000  -0.2500000), wk =   0.0078125
        k(   42) = (   0.1250000  -0.0000000  -0.1250000), wk =   0.0078125
        k(   43) = (   0.1250000   0.1250000  -0.0000000), wk =   0.0078125
        k(   44) = (   0.1250000   0.1250000   0.1250000), wk =   0.0078125
        k(   45) = (   0.1250000   0.1250000   0.2500000), wk =   0.0078125
        k(   46) = (   0.1250000   0.1250000   0.3750000), wk =   0.0078125
        k(   47) = (   0.1250000   0.1250000  -0.5000000), wk =   0.0078125
        k(   48) = (   0.1250000   0.1250000  -0.3750000), wk =   0.0078125
        k(   49) = (   0.1250000   0.1250000  -0.2500000), wk =   0.0078125
        k(   50) = (   0.1250000   0.1250000  -0.1250000), wk =   0.0078125
        k(   51) = (   0.1250000   0.2500000   0.0000000), wk =   0.0078125
        k(   52) = (   0.1250000   0.2500000   0.1250000), wk =   0.0078125
        k(   53) = (   0.1250000   0.2500000   0.2500000), wk =   0.0078125
        k(   54) = (   0.1250000   0.2500000   0.3750000), wk =   0.0078125
        k(   55) = (   0.1250000   0.2500000  -0.5000000), wk =   0.0078125
        k(   56) = (   0.1250000   0.2500000  -0.3750000), wk =   0.0078125
        k(   57) = (   0.1250000   0.2500000  -0.2500000), wk =   0.0078125
        k(   58) = (   0.1250000   0.2500000  -0.1250000), wk =   0.0078125
        k(   59) = (   0.1250000   0.3750000   0.0000000), wk =   0.0078125
        k(   60) = (   0.1250000   0.3750000   0.1250000), wk =   0.0078125
[...]
        k(  246) = (  -0.5000000   0.2500000  -0.2500000), wk =   0.0078125
        k(  247) = (  -0.5000000   0.2500000  -0.1250000), wk =   0.0078125
        k(  248) = (  -0.5000000   0.3750000  -0.0000000), wk =   0.0078125
        k(  249) = (  -0.5000000   0.3750000   0.1250000), wk =   0.0078125
        k(  250) = (  -0.5000000   0.3750000   0.2500000), wk =   0.0078125
        k(  251) = (  -0.5000000   0.3750000   0.3750000), wk =   0.0078125
        k(  252) = (  -0.5000000   0.3750000  -0.5000000), wk =   0.0078125
        k(  253) = (  -0.5000000   0.3750000  -0.3750000), wk =   0.0078125
        k(  254) = (  -0.5000000   0.3750000  -0.2500000), wk =   0.0078125
        k(  255) = (  -0.5000000   0.3750000  -0.1250000), wk =   0.0078125
        k(  256) = (  -0.5000000  -0.5000000   0.0000000), wk =   0.0039062
        k(  257) = (  -0.5000000  -0.5000000   0.1250000), wk =   0.0078125
        k(  258) = (  -0.5000000  -0.5000000   0.2500000), wk =   0.0078125
        k(  259) = (  -0.5000000  -0.5000000   0.3750000), wk =   0.0078125
        k(  260) = (  -0.5000000  -0.5000000  -0.5000000), wk =   0.0039062

     Check: negative core charge=   -0.000003

     Initial potential from superposition of free atoms

     starting charge   41.69964, renormalised to   42.00000
     Starting wfcs are   26 randomized atomic wfcs

     Self-consistent Calculation

[...]

     total energy              =    -651.12646953 Ry
     Harris-Foulkes estimate   =    -651.12646948 Ry
     estimated scf accuracy    <       0.00000010 Ry

     iteration #  9     ecut=    80.00 Ry     beta= 0.50
     Davidson diagonalization with overlap
     ethr =  2.34E-10,  avg # of iterations =  2.0

     End of self-consistent calculation

[...]

          k = 0.3749 0.0721-0.0961 (  3703 PWs)   bands (ev):

[...]

          k =-0.4998-0.8657-0.3843 (  3704 PWs)   bands (ev):

  -115.3933 -69.7551 -69.7521 -69.7514 -64.7982 -31.7967 -31.7858 -31.7699
    -9.2707  -8.6898   1.9056   2.1295   2.4036   2.6735   3.0612   3.4229
     4.6426   5.5629   5.9847   6.1138   7.4837

     occupation numbers
     1.0000   1.0000   1.0000   1.0000   1.0000   1.0000   1.0000   1.0000
     1.0000   1.0000   1.0000   1.0000   1.0000   1.0000   1.0000   1.0000
     1.0000   1.0000   1.0000   1.0000   1.0000

     highest occupied level (ev):     7.7593

!    total energy              =    -651.12646955 Ry
     Harris-Foulkes estimate   =    -651.12646955 Ry
     estimated scf accuracy    <          8.1E-09 Ry

     The total energy is the sum of the following terms:

     one-electron contribution =    -524.50289154 Ry
     hartree contribution      =     276.30621428 Ry
     xc contribution           =     -73.09527131 Ry
     ewald contribution        =    -329.83452098 Ry

     convergence has been achieved in   9 iterations

     Forces acting on atoms (cartesian axes, Ry/au):

     atom    1 type  3   force =    -0.00000028    0.00000072    0.00672504
     atom    2 type  3   force =    -0.00000029    0.00000042    0.00423661
     atom    3 type  2   force =     0.00000021    0.00000024    0.00090319
     atom    4 type  1   force =     0.00000035   -0.00000138   -0.01186485
     The non-local contrib.  to forces
     atom    1 type  3   force =    -0.00000030   -0.00000167   -0.12519702
     atom    2 type  3   force =     0.00000058    0.00000132   -0.03792700
     atom    3 type  2   force =     0.00000216   -0.00000499   -0.26849144
     atom    4 type  1   force =     0.00000048   -0.00000139   -0.11756707
     The ionic contribution  to forces
     atom    1 type  3   force =    -0.00000123    0.00002741    2.98060873
     atom    2 type  3   force =    -0.00001606    0.00001761   -0.64748135
     atom    3 type  2   force =     0.00001641   -0.00002829   -1.15484183
     atom    4 type  1   force =     0.00000088   -0.00001673   -1.17828555
     The local contribution  to forces
     atom    1 type  3   force =     0.00000125   -0.00002501   -2.84947740
     atom    2 type  3   force =     0.00001518   -0.00001847    0.68984999
     atom    3 type  2   force =    -0.00001835    0.00003352    1.42425624
     atom    4 type  1   force =    -0.00000101    0.00001668    1.28398501
     The core correction contribution to forces
     atom    1 type  3   force =     0.00000001    0.00000001    0.00080925
     atom    2 type  3   force =    -0.00000000   -0.00000002   -0.00022334
     atom    3 type  2   force =     0.00000000    0.00000000    0.00000000
     atom    4 type  1   force =     0.00000000    0.00000000    0.00000000
     The Hubbard contrib.    to forces
     atom    1 type  3   force =     0.00000000    0.00000000    0.00000000
     atom    2 type  3   force =     0.00000000    0.00000000    0.00000000
     atom    3 type  2   force =     0.00000000    0.00000000    0.00000000
     atom    4 type  1   force =     0.00000000    0.00000000    0.00000000
     The SCF correction term to forces
     atom    1 type  3   force =     0.00000000    0.00000000    0.00000000
     atom    2 type  3   force =     0.00000000    0.00000000    0.00000000
     atom    3 type  2   force =     0.00000000    0.00000000    0.00000000
     atom    4 type  1   force =     0.00000000    0.00000000    0.00000000

     Total force =     0.000000     Total SCF correction =     0.000000

     Computing stress (Cartesian axis) and pressure

          total   stress  (Ry/bohr**3)                   (kbar)     P=   -0.91
  -0.00000487  -0.00000000  -0.00000000         -0.72     -0.00     -0.00
  -0.00000000  -0.00000486   0.00000001         -0.00     -0.71      0.00
  -0.00000000   0.00000001  -0.00000873         -0.00      0.00     -1.28

     kinetic stress (kbar)  27561.65     -0.00     -0.00
                               -0.00  27561.65      0.00
                               -0.00      0.00  27705.94

     local   stress (kbar)  -9812.23     -0.00     -0.01
                               -0.00  -9812.25      0.03
                               -0.01      0.03  -9451.58

     nonloc. stress (kbar)   1846.96      0.00      0.00
                                0.00   1846.95     -0.00
                                0.00     -0.00   1794.37

     hartree stress (kbar)  44397.64      0.00      0.00
                                0.00  44397.64     -0.01
                                0.00     -0.01  44066.97

     exc-cor stress (kbar) -10908.05      0.00      0.00
                                0.00 -10908.05     -0.00
                                0.00     -0.00 -10909.20

     corecor stress (kbar)   -259.82     -0.00      0.00
                               -0.00   -259.82      0.00
                                0.00      0.00   -260.08

     ewald   stress (kbar) -52826.86      0.00      0.01
                                0.00 -52826.84     -0.01
                                0.01     -0.01 -52947.71

     hubbard stress (kbar)      0.00      0.00      0.00
                                0.00      0.00      0.00
                                0.00      0.00      0.00

     london  stress (kbar)      0.00      0.00      0.00
                                0.00      0.00      0.00
                                0.00      0.00      0.00

     DFT-D3  stress (kbar)      0.00      0.00      0.00
                                0.00      0.00      0.00
                                0.00      0.00      0.00

     XDM     stress (kbar)      0.00      0.00      0.00
                                0.00      0.00      0.00
                                0.00      0.00      0.00

     dft-nl  stress (kbar)      0.00      0.00      0.00
                                0.00      0.00      0.00
                                0.00      0.00      0.00

     TS-vdW  stress (kbar)      0.00      0.00      0.00
                                0.00      0.00      0.00
                                0.00      0.00      0.00

     Writing output data file ZnO.save/

     General routines

     Parallel routines

   This run was terminated on:  19:53: 2  16Jun2022

   JOB DONE.