     Program PWSCF v.6.4.1 starts on 15Jun2022 at 20:52:36

     K-points division:     npool     =       4
     R & G space division:  proc/nbgrp/npool/nimage =      16
     Waiting for input...
     Reading input from standard input
Warning: card &IONS ignored
Warning: card   UPSCALE           = 100.D0, ignored
Warning: card / ignored
Warning: card &CELL ignored
Warning: card   CELL_DYNAMICS     = 'BFGS' ignored
Warning: card   PRESS_CONV_THR    = 0.5D0 ignored
Warning: card   CELL_DOFREE = 'ALL' ignored
Warning: card / ignored

     Current dimensions of program PWSCF are:
     Max number of different atomic species (ntypx) = 10
     Max number of k-points (npk) =  40000
     Max angular momentum in pseudopotentials (lmaxx) =  3

     bravais-lattice index     =            0
     lattice parameter (alat)  =       6.4865  a.u.
     unit-cell volume          =     305.8380 (a.u.)^3
     number of atoms/cell      =            4
     number of atomic types    =            2
     number of electrons       =        32.00
     number of Kohn-Sham states=           16
     kinetic-energy cutoff     =      80.0000  Ry
     charge density cutoff     =     600.0000  Ry
     convergence threshold     =      1.0E-06
     mixing beta               =       0.5000
     number of iterations used =            8  plain     mixing
     Exchange-correlation      = SLA  PW   PSX  PSC ( 1  4 10  8 0 0)

     celldm(1)=   6.486528  celldm(2)=   0.000000  celldm(3)=   0.000000
     celldm(4)=   0.000000  celldm(5)=   0.000000  celldm(6)=   0.000000

     crystal axes: (cart. coord. in units of alat)
               a(1) = (   1.000000   0.000000  -0.000000 )
               a(2) = (  -0.500000   0.866025   0.000000 )
               a(3) = (  -0.000000   0.000000   1.293969 )

     reciprocal axes: (cart. coord. in units 2 pi/alat)
               b(1) = (  1.000000  0.577350 -0.000000 )
               b(2) = ( -0.000000  1.154700 -0.000000 )
               b(3) = (  0.000000 -0.000000  0.772816 )

     PseudoPot. # 1 for Mg read from file:
     ./GBRV_PBEsol/mg_pbesol_v1.4.uspp.F.UPF
     MD5 check sum: 4059f37963cf5867752dbf5ab2400678
     Pseudo is Ultrasoft, Zval = 10.0
     Generated by new atomic code, or converted to UPF format
     Using radial grid of  821 points,  7 beta functions with:
                l(1) =   0
                l(2) =   0
                l(3) =   0
                l(4) =   1
                l(5) =   1
                l(6) =   2
                l(7) =   2
     Q(r) pseudized with  8 coefficients,  rinner =    1.200   1.200   1.200
                                                       1.200   1.200

     PseudoPot. # 2 for O  read from file:
     ./GBRV_PBEsol/o_pbesol_v1.2.uspp.F.UPF
     MD5 check sum: 501638753501ef6325af9037351f7734
     Pseudo is Ultrasoft + core correction, Zval =  6.0
     Generated by new atomic code, or converted to UPF format
     Using radial grid of  737 points,  5 beta functions with:
                l(1) =   0
                l(2) =   0
                l(3) =   1
                l(4) =   1
                l(5) =   2
     Q(r) pseudized with  8 coefficients,  rinner =    0.900   0.900   0.900
                                                       0.900   0.900

     atomic species   valence    mass     pseudopotential
        Mg            10.00    24.30500     Mg( 1.00)
        O              6.00    15.99900     O ( 1.00)

     No symmetry found

                                    s                        frac. trans.

      isym =  1     identity

 cryst.   s( 1) = (     1          0          0      )
                  (     0          1          0      )
                  (     0          0          1      )

 cart.    s( 1) = (  1.0000000 -0.0000000  0.0000000 )
                  (  0.0000000  1.0000000 -0.0000000 )
                  ( -0.0000000  0.0000000  1.0000000 )

   Cartesian axes

     site n.     atom                  positions (alat units)
         1           O   tau(   1) = (   0.5000002   0.2886755   0.0095054  )
         2           O   tau(   2) = (   0.0000001   0.5773495   0.6564897  )
         3           Mg  tau(   3) = (   0.5000000   0.2886749   0.7199049  )
         4           Mg  tau(   4) = (  -0.0000002   0.5773513   1.3668893  )

   Crystallographic axes

     site n.     atom                  positions (cryst. coord.)
         1           O   tau(   1) = (  0.6666670  0.3333337  0.0073459  )
         2           O   tau(   2) = (  0.3333329  0.6666657  0.5073458  )
         3           Mg  tau(   3) = (  0.6666664  0.3333329  0.5563540  )
         4           Mg  tau(   4) = (  0.3333336  0.6666677  1.0563539  )

     number of k points=   260
                       cart. coord. in units 2pi/alat
        k(    1) = (   0.0000000   0.0000000   0.0000000), wk =   0.0039062
        k(    2) = (   0.0000000  -0.0000000   0.0966020), wk =   0.0078125
        k(    3) = (   0.0000000  -0.0000000   0.1932040), wk =   0.0078125
        k(    4) = (   0.0000000  -0.0000000   0.2898060), wk =   0.0078125
        k(    5) = (  -0.0000000   0.0000001  -0.3864080), wk =   0.0039062
        k(    6) = (  -0.0000000   0.1443375  -0.0000000), wk =   0.0078125
        k(    7) = (  -0.0000000   0.1443375   0.0966020), wk =   0.0078125
        k(    8) = (  -0.0000000   0.1443375   0.1932040), wk =   0.0078125
        k(    9) = (  -0.0000000   0.1443375   0.2898060), wk =   0.0078125
        k(   10) = (  -0.0000000   0.1443376  -0.3864081), wk =   0.0078125
        k(   11) = (  -0.0000000   0.1443376  -0.2898060), wk =   0.0078125
        k(   12) = (  -0.0000000   0.1443376  -0.1932040), wk =   0.0078125
        k(   13) = (  -0.0000000   0.1443376  -0.0966020), wk =   0.0078125
        k(   14) = (  -0.0000000   0.2886751  -0.0000000), wk =   0.0078125
        k(   15) = (  -0.0000000   0.2886751   0.0966020), wk =   0.0078125
        k(   16) = (  -0.0000000   0.2886751   0.1932040), wk =   0.0078125
        k(   17) = (  -0.0000000   0.2886750   0.2898060), wk =   0.0078125
        k(   18) = (  -0.0000000   0.2886752  -0.3864081), wk =   0.0078125
        k(   19) = (  -0.0000000   0.2886751  -0.2898061), wk =   0.0078125
        k(   20) = (  -0.0000000   0.2886751  -0.1932040), wk =   0.0078125
        k(   21) = (  -0.0000000   0.2886751  -0.0966020), wk =   0.0078125
        k(   22) = (  -0.0000000   0.4330126  -0.0000000), wk =   0.0078125
        k(   23) = (  -0.0000000   0.4330126   0.0966020), wk =   0.0078125
        k(   24) = (  -0.0000000   0.4330126   0.1932040), wk =   0.0078125
        k(   25) = (  -0.0000000   0.4330126   0.2898060), wk =   0.0078125
        k(   26) = (  -0.0000000   0.4330127  -0.3864081), wk =   0.0078125
        k(   27) = (  -0.0000000   0.4330127  -0.2898061), wk =   0.0078125
        k(   28) = (  -0.0000000   0.4330127  -0.1932040), wk =   0.0078125
        k(   29) = (  -0.0000000   0.4330127  -0.0966020), wk =   0.0078125
        k(   30) = (   0.0000000  -0.5773502   0.0000000), wk =   0.0039062
        k(   31) = (   0.0000000  -0.5773502   0.0966020), wk =   0.0078125
        k(   32) = (   0.0000000  -0.5773502   0.1932041), wk =   0.0078125
        k(   33) = (   0.0000000  -0.5773502   0.2898061), wk =   0.0078125
        k(   34) = (   0.0000000  -0.5773501  -0.3864080), wk =   0.0039062
        k(   35) = (   0.1250000   0.0721688  -0.0000000), wk =   0.0078125
        k(   36) = (   0.1250000   0.0721687   0.0966020), wk =   0.0078125
        k(   37) = (   0.1250000   0.0721687   0.1932040), wk =   0.0078125
        k(   38) = (   0.1250000   0.0721687   0.2898060), wk =   0.0078125
        k(   39) = (   0.1250000   0.0721688  -0.3864080), wk =   0.0078125
        k(   40) = (   0.1250000   0.0721688  -0.2898060), wk =   0.0078125
        k(   41) = (   0.1250000   0.0721688  -0.1932040), wk =   0.0078125
        k(   42) = (   0.1250000   0.0721688  -0.0966020), wk =   0.0078125
        k(   43) = (   0.1250000   0.2165063  -0.0000000), wk =   0.0078125
        k(   44) = (   0.1250000   0.2165063   0.0966020), wk =   0.0078125
        k(   45) = (   0.1250000   0.2165063   0.1932040), wk =   0.0078125
        k(   46) = (   0.1250000   0.2165063   0.2898060), wk =   0.0078125
        k(   47) = (   0.1250000   0.2165064  -0.3864081), wk =   0.0078125
        k(   48) = (   0.1250000   0.2165064  -0.2898060), wk =   0.0078125
        k(   49) = (   0.1250000   0.2165063  -0.1932040), wk =   0.0078125
        k(   50) = (   0.1250000   0.2165063  -0.0966020), wk =   0.0078125
        k(   51) = (   0.1250000   0.3608439  -0.0000000), wk =   0.0078125
        k(   52) = (   0.1250000   0.3608438   0.0966020), wk =   0.0078125
        k(   53) = (   0.1250000   0.3608438   0.1932040), wk =   0.0078125
        k(   54) = (   0.1250000   0.3608438   0.2898060), wk =   0.0078125
        k(   55) = (   0.1250000   0.3608439  -0.3864081), wk =   0.0078125
        k(   56) = (   0.1250000   0.3608439  -0.2898061), wk =   0.0078125
        k(   57) = (   0.1250000   0.3608439  -0.1932040), wk =   0.0078125
        k(   58) = (   0.1250000   0.3608439  -0.0966020), wk =   0.0078125
        k(   59) = (   0.1250000   0.5051814  -0.0000000), wk =   0.0078125
        k(   60) = (   0.1250000   0.5051814   0.0966020), wk =   0.0078125
[...]
        k(  246) = (  -0.5000000   0.0000001  -0.1932040), wk =   0.0078125
        k(  247) = (  -0.5000000   0.0000001  -0.0966020), wk =   0.0078125
        k(  248) = (  -0.5000000   0.1443376  -0.0000000), wk =   0.0078125
        k(  249) = (  -0.5000000   0.1443376   0.0966020), wk =   0.0078125
        k(  250) = (  -0.5000000   0.1443376   0.1932040), wk =   0.0078125
        k(  251) = (  -0.5000000   0.1443375   0.2898060), wk =   0.0078125
        k(  252) = (  -0.5000000   0.1443376  -0.3864081), wk =   0.0078125
        k(  253) = (  -0.5000000   0.1443376  -0.2898061), wk =   0.0078125
        k(  254) = (  -0.5000000   0.1443376  -0.1932040), wk =   0.0078125
        k(  255) = (  -0.5000000   0.1443376  -0.0966020), wk =   0.0078125
        k(  256) = (  -0.4999999  -0.8660252   0.0000000), wk =   0.0039062
        k(  257) = (  -0.4999999  -0.8660253   0.0966020), wk =   0.0078125
        k(  258) = (  -0.4999999  -0.8660253   0.1932041), wk =   0.0078125
        k(  259) = (  -0.4999999  -0.8660253   0.2898061), wk =   0.0078125
        k(  260) = (  -0.4999999  -0.8660252  -0.3864080), wk =   0.0039062

                       cryst. coord.
        k(    1) = (   0.0000000   0.0000000   0.0000000), wk =   0.0039062
        k(    2) = (  -0.0000000  -0.0000000   0.1250000), wk =   0.0078125
        k(    3) = (  -0.0000000  -0.0000000   0.2500000), wk =   0.0078125
        k(    4) = (  -0.0000000  -0.0000000   0.3750000), wk =   0.0078125
        k(    5) = (   0.0000000   0.0000000  -0.5000000), wk =   0.0039062
        k(    6) = (   0.0000000   0.1250000  -0.0000000), wk =   0.0078125
        k(    7) = (   0.0000000   0.1250000   0.1250000), wk =   0.0078125
        k(    8) = (   0.0000000   0.1250000   0.2500000), wk =   0.0078125
        k(    9) = (   0.0000000   0.1250000   0.3750000), wk =   0.0078125
        k(   10) = (   0.0000000   0.1250000  -0.5000000), wk =   0.0078125
        k(   11) = (   0.0000000   0.1250000  -0.3750000), wk =   0.0078125
        k(   12) = (   0.0000000   0.1250000  -0.2500000), wk =   0.0078125
        k(   13) = (   0.0000000   0.1250000  -0.1250000), wk =   0.0078125
        k(   14) = (   0.0000000   0.2500000  -0.0000000), wk =   0.0078125
        k(   15) = (   0.0000000   0.2500000   0.1250000), wk =   0.0078125
        k(   16) = (   0.0000000   0.2500000   0.2500000), wk =   0.0078125
        k(   17) = (   0.0000000   0.2500000   0.3750000), wk =   0.0078125
        k(   18) = (   0.0000000   0.2500000  -0.5000000), wk =   0.0078125
        k(   19) = (   0.0000000   0.2500000  -0.3750000), wk =   0.0078125
        k(   20) = (   0.0000000   0.2500000  -0.2500000), wk =   0.0078125
        k(   21) = (   0.0000000   0.2500000  -0.1250000), wk =   0.0078125
        k(   22) = (   0.0000000   0.3750000   0.0000000), wk =   0.0078125
        k(   23) = (   0.0000000   0.3750000   0.1250000), wk =   0.0078125
        k(   24) = (  -0.0000000   0.3750000   0.2500000), wk =   0.0078125
        k(   25) = (   0.0000000   0.3750000   0.3750000), wk =   0.0078125
        k(   26) = (   0.0000000   0.3750000  -0.5000000), wk =   0.0078125
        k(   27) = (   0.0000000   0.3750000  -0.3750000), wk =   0.0078125
        k(   28) = (   0.0000000   0.3750000  -0.2500000), wk =   0.0078125
        k(   29) = (  -0.0000000   0.3750000  -0.1250000), wk =   0.0078125
        k(   30) = (  -0.0000000  -0.5000000   0.0000000), wk =   0.0039062
        k(   31) = (  -0.0000000  -0.5000000   0.1250000), wk =   0.0078125
        k(   32) = (  -0.0000000  -0.5000000   0.2500000), wk =   0.0078125
        k(   33) = (  -0.0000000  -0.5000000   0.3750000), wk =   0.0078125
        k(   34) = (  -0.0000000  -0.5000000  -0.5000000), wk =   0.0039062
        k(   35) = (   0.1250000  -0.0000000  -0.0000000), wk =   0.0078125
        k(   36) = (   0.1250000  -0.0000000   0.1250000), wk =   0.0078125
        k(   37) = (   0.1250000  -0.0000000   0.2500000), wk =   0.0078125
        k(   38) = (   0.1250000  -0.0000000   0.3750000), wk =   0.0078125
        k(   39) = (   0.1250000  -0.0000000  -0.5000000), wk =   0.0078125
        k(   40) = (   0.1250000  -0.0000000  -0.3750000), wk =   0.0078125
        k(   41) = (   0.1250000  -0.0000000  -0.2500000), wk =   0.0078125
        k(   42) = (   0.1250000  -0.0000000  -0.1250000), wk =   0.0078125
        k(   43) = (   0.1250000   0.1250000  -0.0000000), wk =   0.0078125
        k(   44) = (   0.1250000   0.1250000   0.1250000), wk =   0.0078125
        k(   45) = (   0.1250000   0.1250000   0.2500000), wk =   0.0078125
        k(   46) = (   0.1250000   0.1250000   0.3750000), wk =   0.0078125
        k(   47) = (   0.1250000   0.1250000  -0.5000000), wk =   0.0078125
        k(   48) = (   0.1250000   0.1250000  -0.3750000), wk =   0.0078125
        k(   49) = (   0.1250000   0.1250000  -0.2500000), wk =   0.0078125
        k(   50) = (   0.1250000   0.1250000  -0.1250000), wk =   0.0078125
        k(   51) = (   0.1250000   0.2500000  -0.0000000), wk =   0.0078125
        k(   52) = (   0.1250000   0.2500000   0.1250000), wk =   0.0078125
        k(   53) = (   0.1250000   0.2500000   0.2500000), wk =   0.0078125
        k(   54) = (   0.1250000   0.2500000   0.3750000), wk =   0.0078125
        k(   55) = (   0.1250000   0.2500000  -0.5000000), wk =   0.0078125
        k(   56) = (   0.1250000   0.2500000  -0.3750000), wk =   0.0078125
        k(   57) = (   0.1250000   0.2500000  -0.2500000), wk =   0.0078125
        k(   58) = (   0.1250000   0.2500000  -0.1250000), wk =   0.0078125
        k(   59) = (   0.1250000   0.3750000   0.0000000), wk =   0.0078125
        k(   60) = (   0.1250000   0.3750000   0.1250000), wk =   0.0078125
[...]
        k(  246) = (  -0.5000000   0.2500000  -0.2500000), wk =   0.0078125
        k(  247) = (  -0.5000000   0.2500000  -0.1250000), wk =   0.0078125
        k(  248) = (  -0.5000000   0.3750000   0.0000000), wk =   0.0078125
        k(  249) = (  -0.5000000   0.3750000   0.1250000), wk =   0.0078125
        k(  250) = (  -0.5000000   0.3750000   0.2500000), wk =   0.0078125
        k(  251) = (  -0.5000000   0.3750000   0.3750000), wk =   0.0078125
        k(  252) = (  -0.5000000   0.3750000  -0.5000000), wk =   0.0078125
        k(  253) = (  -0.5000000   0.3750000  -0.3750000), wk =   0.0078125
        k(  254) = (  -0.5000000   0.3750000  -0.2500000), wk =   0.0078125
        k(  255) = (  -0.5000000   0.3750000  -0.1250000), wk =   0.0078125
        k(  256) = (  -0.5000000  -0.5000000   0.0000000), wk =   0.0039062
        k(  257) = (  -0.5000000  -0.5000000   0.1250000), wk =   0.0078125
        k(  258) = (  -0.5000000  -0.5000000   0.2500000), wk =   0.0078125
        k(  259) = (  -0.5000000  -0.5000000   0.3750000), wk =   0.0078125
        k(  260) = (  -0.5000000  -0.5000000  -0.5000000), wk =   0.0039062

     Check: negative core charge=   -0.000003

     Initial potential from superposition of free atoms

     starting charge   31.39954, renormalised to   32.00000
     Starting wfcs are   18 randomized atomic wfcs

     Self-consistent Calculation

     iteration #  1     ecut=    80.00 Ry     beta= 0.50
     Davidson diagonalization with overlap
     ethr =  1.00E-02,  avg # of iterations =  2.0

     total energy              =    -314.91419074 Ry
     Harris-Foulkes estimate   =    -315.45949362 Ry
     estimated scf accuracy    <       0.85973921 Ry

[...]

     total energy              =    -315.18364205 Ry
     Harris-Foulkes estimate   =    -315.18364173 Ry
     estimated scf accuracy    <       0.00000196 Ry

     iteration #  7     ecut=    80.00 Ry     beta= 0.50
     Davidson diagonalization with overlap
     ethr =  6.12E-09,  avg # of iterations =  2.0

     End of self-consistent calculation

          k = 0.0000 0.0000 0.0000 (  3653 PWs)   bands (ev):

   -66.3916 -66.3823 -33.4147 -33.3679 -33.3679 -33.3485 -33.3485 -33.3479
   -11.1773  -9.9673   1.8564   3.9548   3.9548   4.6559   4.6559   5.4991

     occupation numbers
     1.0000   1.0000   1.0000   1.0000   1.0000   1.0000   1.0000   1.0000
     1.0000   1.0000   1.0000   1.0000   1.0000   1.0000   1.0000   1.0000

[...]

          k =-0.0000 0.0000-0.3864 (  3720 PWs)   bands (ev):

[...]

          k = 0.3750 0.0722-0.0966 (  3697 PWs)   bands (ev):

[...]

          k =-0.5000-0.8660-0.3864 (  3696 PWs)   bands (ev):

   -66.3860 -66.3860 -33.4067 -33.4067 -33.3627 -33.3627 -33.3519 -33.3519
   -10.2383 -10.2379   1.7395   1.7396   4.0291   4.0294   4.6350   4.6351

     occupation numbers
     1.0000   1.0000   1.0000   1.0000   1.0000   1.0000   1.0000   1.0000
     1.0000   1.0000   1.0000   1.0000   1.0000   1.0000   1.0000   1.0000

     highest occupied level (ev):     5.4991

!    total energy              =    -315.18364245 Ry
     Harris-Foulkes estimate   =    -315.18364233 Ry
     estimated scf accuracy    <       0.00000012 Ry

     The total energy is the sum of the following terms:

     one-electron contribution =    -208.48782903 Ry
     hartree contribution      =     110.99897099 Ry
     xc contribution           =     -48.08510519 Ry
     ewald contribution        =    -169.60967923 Ry

     convergence has been achieved in   7 iterations

     Forces acting on atoms (cartesian axes, Ry/au):

     atom    1 type  2   force =    -0.00000012    0.00000001    0.01573560
     atom    2 type  2   force =    -0.00000043    0.00000097    0.01573560
     atom    3 type  1   force =     0.00000213   -0.00000038   -0.01574221
     atom    4 type  1   force =    -0.00000158   -0.00000060   -0.01572899
     The non-local contrib.  to forces
     atom    1 type  2   force =    -0.00000028   -0.00000193   -0.05587412
     atom    2 type  2   force =    -0.00000016    0.00000286   -0.05586678
     atom    3 type  1   force =     0.00000074   -0.00000319   -0.16526212
     atom    4 type  1   force =     0.00000092   -0.00000075   -0.16526350
     The ionic contribution  to forces
     atom    1 type  2   force =    -0.00000699    0.00002026    1.09021354
     atom    2 type  2   force =    -0.00000261    0.00000460    1.09021215
     atom    3 type  1   force =     0.00000309   -0.00001885   -1.09021208
     atom    4 type  1   force =     0.00000650   -0.00000601   -1.09021361
     The local contribution  to forces
     atom    1 type  2   force =     0.00000655   -0.00001767   -1.01863239
     atom    2 type  2   force =     0.00000291   -0.00000616   -1.01864028
     atom    3 type  1   force =    -0.00000379    0.00002173    1.23987671
     atom    4 type  1   force =    -0.00000723    0.00000577    1.23985114
     The core correction contribution to forces
     atom    1 type  2   force =     0.00000001    0.00000001   -0.00011693
     atom    2 type  2   force =     0.00000000   -0.00000002   -0.00011702
     atom    3 type  1   force =     0.00000000    0.00000000    0.00000000
     atom    4 type  1   force =     0.00000000    0.00000000    0.00000000
     The Hubbard contrib.    to forces
     atom    1 type  2   force =     0.00000000    0.00000000    0.00000000
     atom    2 type  2   force =     0.00000000    0.00000000    0.00000000
     atom    3 type  1   force =     0.00000000    0.00000000    0.00000000
     atom    4 type  1   force =     0.00000000    0.00000000    0.00000000
     The SCF correction term to forces
     atom    1 type  2   force =     0.00000000    0.00000000    0.00000000
     atom    2 type  2   force =     0.00000000    0.00000000    0.00000000
     atom    3 type  1   force =     0.00000000    0.00000000    0.00000000
     atom    4 type  1   force =     0.00000000    0.00000000    0.00000000

     Total force =     0.000000     Total SCF correction =     0.000000

     Computing stress (Cartesian axis) and pressure

          total   stress  (Ry/bohr**3)                   (kbar)     P=   -1.01
  -0.00000568   0.00000000   0.00000000         -0.84      0.00      0.00
   0.00000000  -0.00000568  -0.00000001          0.00     -0.84     -0.00
   0.00000000  -0.00000001  -0.00000934          0.00     -0.00     -1.37

     kinetic stress (kbar)  19877.51      0.00      0.00
                                0.00  19877.51     -0.00
                                0.00     -0.00  19923.77

     local   stress (kbar)  -5206.76     -0.02     -0.01
                               -0.02  -5206.80      0.02
                               -0.01      0.02 -15411.81

     nonloc. stress (kbar)   5446.01      0.00      0.00
                                0.00   5446.01      0.00
                                0.00      0.00   5418.82

     hartree stress (kbar)  16271.68      0.01      0.00
                                0.01  16271.69     -0.01
                                0.00     -0.01  20846.03

     exc-cor stress (kbar)  -7065.09      0.00      0.00
                                0.00  -7065.09      0.00
                                0.00      0.00  -7065.11

     corecor stress (kbar)   -260.24     -0.00     -0.00
                               -0.00   -260.24      0.00
                               -0.00      0.00   -260.35

     ewald   stress (kbar) -29063.94      0.01      0.01
                                0.01 -29063.92     -0.01
                                0.01     -0.01 -23452.72

     hubbard stress (kbar)      0.00      0.00      0.00
                                0.00      0.00      0.00
                                0.00      0.00      0.00

     london  stress (kbar)      0.00      0.00      0.00
                                0.00      0.00      0.00
                                0.00      0.00      0.00

     DFT-D3  stress (kbar)      0.00      0.00      0.00
                                0.00      0.00      0.00
                                0.00      0.00      0.00

     XDM     stress (kbar)      0.00      0.00      0.00
                                0.00      0.00      0.00
                                0.00      0.00      0.00

     dft-nl  stress (kbar)      0.00      0.00      0.00
                                0.00      0.00      0.00
                                0.00      0.00      0.00

     TS-vdW  stress (kbar)      0.00      0.00      0.00
                                0.00      0.00      0.00
                                0.00      0.00      0.00

     Writing output data file ZnO.save/

     General routines

     Parallel routines

   This run was terminated on:  20:52:42  15Jun2022

   JOB DONE.