     Program PWSCF v.6.4.1 starts on  8Nov2021 at 19:33:37

     K-points division:     npool     =       8
     R & G space division:  proc/nbgrp/npool/nimage =      16
     Waiting for input...
     Reading input from standard input
Warning: card &CELL ignored
Warning: card   CELL_DYNAMICS     = 'BFGS' ignored
Warning: card   PRESS_CONV_THR    = 0.5D0 ignored
Warning: card   CELL_DOFREE = 'Z' ignored
Warning: card / ignored

     Current dimensions of program PWSCF are:
     Max number of different atomic species (ntypx) = 10
     Max number of k-points (npk) =  40000
     Max angular momentum in pseudopotentials (lmaxx) =  3

     bravais-lattice index     =            0
     lattice parameter (alat)  =      18.3962  a.u.
     unit-cell volume          =    5238.3865 (a.u.)^3
     number of atoms/cell      =           72
     number of atomic types    =            3
     number of electrons       =       836.00
     number of Kohn-Sham states=          502
     kinetic-energy cutoff     =      60.0000  Ry
     charge density cutoff     =     500.0000  Ry
     convergence threshold     =      1.0E-08
     mixing beta               =       0.5000
     number of iterations used =            8  plain     mixing
     Exchange-correlation      = SLA  PW   PSX  PSC ( 1  4 10  8 0 0)
     nstep                     =          200

     celldm(1)=  18.396228  celldm(2)=   0.000000  celldm(3)=   0.000000
     celldm(4)=   0.000000  celldm(5)=   0.000000  celldm(6)=   0.000000

     crystal axes: (cart. coord. in units of alat)
               a(1) = (   0.999999  -0.001169  -0.000203 )
               a(2) = (  -0.501010   0.867329   0.000174 )
               a(3) = (  -0.000266   0.000110   0.970781 )

     reciprocal axes: (cart. coord. in units 2 pi/alat)
               b(1) = (  1.000676  0.578038  0.000209 )
               b(2) = (  0.001348  1.153744 -0.000130 )
               b(3) = (  0.000209 -0.000086  1.030099 )

     PseudoPot. # 1 for Zn read from file:
     ./GBRV_PBEsol/zn_pbesol_v1.uspp.F.UPF
     MD5 check sum: 7d8615e52efe7c1e2b1899de8658bae2
     Pseudo is Ultrasoft, Zval = 20.0
     Generated by new atomic code, or converted to UPF format
     Using radial grid of  943 points,  6 beta functions with:
                l(1) =   0
                l(2) =   0
                l(3) =   1
                l(4) =   1
                l(5) =   2
                l(6) =   2
     Q(r) pseudized with  8 coefficients,  rinner =    1.100   1.100   1.100
                                                       1.100   1.100

     PseudoPot. # 2 for O  read from file:
     ./GBRV_PBEsol/o_pbesol_v1.2.uspp.F.UPF
     MD5 check sum: 501638753501ef6325af9037351f7734
     Pseudo is Ultrasoft + core correction, Zval =  6.0
     Generated by new atomic code, or converted to UPF format
     Using radial grid of  737 points,  5 beta functions with:
                l(1) =   0
                l(2) =   0
                l(3) =   1
                l(4) =   1
                l(5) =   2
     Q(r) pseudized with  8 coefficients,  rinner =    0.900   0.900   0.900
                                                       0.900   0.900

     PseudoPot. # 3 for Mg read from file:
     ./GBRV_PBEsol/mg_pbesol_v1.4.uspp.F.UPF
     MD5 check sum: 4059f37963cf5867752dbf5ab2400678
     Pseudo is Ultrasoft, Zval = 10.0
     Generated by new atomic code, or converted to UPF format
     Using radial grid of  821 points,  7 beta functions with:
                l(1) =   0
                l(2) =   0
                l(3) =   0
                l(4) =   1
                l(5) =   1
                l(6) =   2
                l(7) =   2
     Q(r) pseudized with  8 coefficients,  rinner =    1.200   1.200   1.200
                                                       1.200   1.200

     atomic species   valence    mass     pseudopotential
        Zn            20.00    65.38000     Zn( 1.00)
        O              6.00    15.99900     O ( 1.00)
        Mg            10.00    24.30500     Mg( 1.00)

     No symmetry found

                                    s                        frac. trans.

      isym =  1     identity

 cryst.   s( 1) = (     1          0          0      )
                  (     0          1          0      )
                  (     0          0          1      )

 cart.    s( 1) = (  1.0000000 -0.0000000  0.0000000 )
                  ( -0.0000000  1.0000000  0.0000000 )
                  ( -0.0000000  0.0000000  1.0000000 )

   Cartesian axes

     site n.     atom                  positions (alat units)
         1           Zn  tau(   1) = (   0.1696456   0.0979840   0.2440698  )
         2           Zn  tau(   2) = (   0.1701599   0.0992092   0.7335631  )
         3           Zn  tau(   3) = (  -0.0004563   0.3844793   0.2460706  )
         4           Zn  tau(   4) = (  -0.0000315   0.3849721   0.7304849  )
         5           Zn  tau(   5) = (  -0.1697504   0.6731404   0.2441946  )
         6           Zn  tau(   6) = (  -0.1686087   0.6732670   0.7323239  )
         7           Zn  tau(   7) = (   0.4987813   0.0944017   0.2457698  )
         8           Mg  tau(   8) = (   0.4994100   0.0949131   0.7305070  )
         9           Zn  tau(   9) = (   0.3332744   0.3883108   0.2452345  )
        10           Mg  tau(  10) = (   0.3332493   0.3879835   0.7314194  )
        11           Mg  tau(  11) = (   0.1628878   0.6739817   0.2456667  )
        12           Zn  tau(  12) = (   0.1628555   0.6739196   0.7314257  )
        13           Zn  tau(  13) = (   0.8333316   0.0922464   0.2454128  )
        14           Zn  tau(  14) = (   0.8336973   0.0947246   0.7309137  )
        15           Mg  tau(  15) = (   0.6638685   0.3804707   0.2443853  )
        16           Zn  tau(  16) = (   0.6641737   0.3817703   0.7306471  )
        17           Mg  tau(  17) = (   0.4992575   0.6743666   0.2484639  )
        18           Zn  tau(  18) = (   0.4998180   0.6743776   0.7282196  )
        19           Zn  tau(  19) = (   0.0006175   0.1925626   0.4879358  )
        20           Mg  tau(  20) = (   0.0012548   0.1924369   0.0026648  )
        21           Mg  tau(  21) = (  -0.1675962   0.4806620   0.4880721  )
        22           Mg  tau(  22) = (  -0.1665581   0.4807799   0.0023367  )
        23           Zn  tau(  23) = (  -0.3331179   0.7732921   0.4881816  )
        24           Mg  tau(  24) = (  -0.3327126   0.7733491   0.0019456  )
        25           Zn  tau(  25) = (   0.3342858   0.1952038   0.4906296  )
        26           Zn  tau(  26) = (   0.3341419   0.1949348   0.0015914  )
        27           Zn  tau(  27) = (   0.1645304   0.4819090   0.4905554  )
        28           Zn  tau(  28) = (   0.1641879   0.4805976   0.0046549  )
        29           Zn  tau(  29) = (  -0.0042301   0.7692655   0.4869789  )
        30           Zn  tau(  30) = (  -0.0039978   0.7694553   0.0026531  )
        31           Zn  tau(  31) = (   0.6675226   0.1901157   0.4886575  )
        32           Zn  tau(  32) = (   0.6678125   0.1892222   0.0039294  )
        33           Zn  tau(  33) = (   0.5017227   0.4822136   0.4863045  )
        34           Zn  tau(  34) = (   0.5017693   0.4830752   0.0040123  )
        35           Mg  tau(  35) = (   0.3311958   0.7701269   0.4864453  )
        36           Zn  tau(  36) = (   0.3320243   0.7686003   0.0030431  )
        37           O   tau(  37) = (   0.1684732   0.0978773   0.0030204  )
        38           O   tau(  38) = (   0.1679864   0.0980033   0.4878939  )
        39           O   tau(  39) = (  -0.0013609   0.3842667   0.0026814  )
        40           O   tau(  40) = (  -0.0011294   0.3846479   0.4880303  )
        41           O   tau(  41) = (  -0.1694919   0.6723249   0.0023530  )
        42           O   tau(  42) = (  -0.1699745   0.6725362   0.4881399  )
        43           O   tau(  43) = (   0.4994562   0.0951460   0.0017197  )
        44           O   tau(  44) = (   0.4993606   0.0950798   0.4905879  )
        45           O   tau(  45) = (   0.3336868   0.3878700   0.0016074  )
        46           O   tau(  46) = (   0.3331773   0.3880185   0.4905138  )
        47           O   tau(  47) = (   0.1643213   0.6741794   0.0046707  )
        48           O   tau(  48) = (   0.1638852   0.6746700   0.4869367  )
        49           O   tau(  49) = (   0.8347587   0.0936316   0.0024272  )
        50           O   tau(  50) = (   0.8345106   0.0950187   0.4886154  )
        51           O   tau(  51) = (   0.6665628   0.3824813   0.0039454  )
        52           O   tau(  52) = (   0.6660636   0.3826807   0.4862624  )
        53           O   tau(  53) = (   0.5002479   0.6756466   0.0040287  )
        54           O   tau(  54) = (   0.4994707   0.6753012   0.4864031  )
        55           O   tau(  55) = (   0.0000331   0.1913264   0.2441121  )
        56           O   tau(  56) = (   0.0007762   0.1919944   0.7336048  )
        57           O   tau(  57) = (  -0.1691394   0.4795792   0.2461127  )
        58           O   tau(  58) = (  -0.1684390   0.4800885   0.7305269  )
        59           O   tau(  59) = (  -0.3346290   0.7726640   0.2442367  )
        60           O   tau(  60) = (  -0.3340946   0.7731836   0.7323657  )
        61           O   tau(  61) = (   0.3352173   0.1956649   0.2458117  )
        62           O   tau(  62) = (   0.3357144   0.1957330   0.7305490  )
        63           O   tau(  63) = (   0.1653465   0.4814397   0.2452764  )
        64           O   tau(  64) = (   0.1656104   0.4820261   0.7314613  )
        65           O   tau(  65) = (  -0.0036262   0.7698805   0.2457085  )
        66           O   tau(  66) = (  -0.0027911   0.7701506   0.7314674  )
        67           O   tau(  67) = (   0.6666677   0.1884576   0.2454547  )
        68           O   tau(  68) = (   0.6668541   0.1900732   0.7309557  )
        69           O   tau(  69) = (   0.5009143   0.4821298   0.2444272  )
        70           O   tau(  70) = (   0.5010303   0.4826308   0.7306890  )
        71           O   tau(  71) = (   0.3310751   0.7673566   0.2485054  )
        72           O   tau(  72) = (   0.3314403   0.7686610   0.7282620  )

   Crystallographic axes

     site n.     atom                  positions (cryst. coord.)
         1           Zn  tau(   1) = (  0.2264497  0.1132455  0.2514431  )
         2           Zn  tau(   2) = (  0.2277747  0.1145963  0.7556696  )
         3           Zn  tau(   3) = (  0.2218383  0.4435582  0.2534438  )
         4           Zn  tau(   4) = (  0.2226493  0.4440646  0.7524385  )
         5           Zn  tau(   5) = (  0.2192864  0.7763713  0.2514509  )
         6           Zn  tau(   6) = (  0.2206039  0.7764555  0.7542726  )
         7           Zn  tau(   7) = (  0.5537377  0.1095561  0.2532635  )
         8           Mg  tau(   8) = (  0.5547635  0.1100840  0.7525909  )
         9           Zn  tau(   9) = (  0.5580094  0.4484290  0.2526520  )
        10           Mg  tau(  10) = (  0.5578964  0.4479881  0.7534706  )
        11           Mg  tau(  11) = (  0.5526363  0.7777903  0.2530369  )
        12           Zn  tau(  12) = (  0.5526693  0.7776556  0.7534168  )
[...]
     atom   27 type  1   force =     0.00000000    0.00000000    0.00000000
     atom   28 type  1   force =     0.00000000    0.00000000    0.00000000
     atom   29 type  1   force =     0.00000000    0.00000000    0.00000000
     atom   30 type  1   force =     0.00000000    0.00000000    0.00000000
     atom   31 type  1   force =     0.00000000    0.00000000    0.00000000
     atom   32 type  1   force =     0.00000000    0.00000000    0.00000000
     atom   33 type  1   force =     0.00000000    0.00000000    0.00000000
     atom   34 type  1   force =     0.00000000    0.00000000    0.00000000
     atom   35 type  3   force =     0.00000000    0.00000000    0.00000000
     atom   36 type  1   force =     0.00000000    0.00000000    0.00000000
     atom   37 type  2   force =     0.00000000    0.00000000    0.00000000
     atom   38 type  2   force =     0.00000000    0.00000000    0.00000000
     atom   39 type  2   force =     0.00000000    0.00000000    0.00000000
     atom   40 type  2   force =     0.00000000    0.00000000    0.00000000
     atom   41 type  2   force =     0.00000000    0.00000000    0.00000000
     atom   42 type  2   force =     0.00000000    0.00000000    0.00000000
     atom   43 type  2   force =     0.00000000    0.00000000    0.00000000
     atom   44 type  2   force =     0.00000000    0.00000000    0.00000000
     atom   45 type  2   force =     0.00000000    0.00000000    0.00000000
     atom   46 type  2   force =     0.00000000    0.00000000    0.00000000
     atom   47 type  2   force =     0.00000000    0.00000000    0.00000000
     atom   48 type  2   force =     0.00000000    0.00000000    0.00000000
     atom   49 type  2   force =     0.00000000    0.00000000    0.00000000
     atom   50 type  2   force =     0.00000000    0.00000000    0.00000000
     atom   51 type  2   force =     0.00000000    0.00000000    0.00000000
     atom   52 type  2   force =     0.00000000    0.00000000    0.00000000
     atom   53 type  2   force =     0.00000000    0.00000000    0.00000000
     atom   54 type  2   force =     0.00000000    0.00000000    0.00000000
     atom   55 type  2   force =     0.00000000    0.00000000    0.00000000
     atom   56 type  2   force =     0.00000000    0.00000000    0.00000000
     atom   57 type  2   force =     0.00000000    0.00000000    0.00000000
     atom   58 type  2   force =     0.00000000    0.00000000    0.00000000
     atom   59 type  2   force =     0.00000000    0.00000000    0.00000000
     atom   60 type  2   force =     0.00000000    0.00000000    0.00000000
     atom   61 type  2   force =     0.00000000    0.00000000    0.00000000
     atom   62 type  2   force =     0.00000000    0.00000000    0.00000000
     atom   63 type  2   force =     0.00000000    0.00000000    0.00000000
     atom   64 type  2   force =     0.00000000    0.00000000    0.00000000
     atom   65 type  2   force =     0.00000000    0.00000000    0.00000000
     atom   66 type  2   force =     0.00000000    0.00000000    0.00000000
     atom   67 type  2   force =     0.00000000    0.00000000    0.00000000
     atom   68 type  2   force =     0.00000000    0.00000000    0.00000000
     atom   69 type  2   force =     0.00000000    0.00000000    0.00000000
     atom   70 type  2   force =     0.00000000    0.00000000    0.00000000
     atom   71 type  2   force =     0.00000000    0.00000000    0.00000000
     atom   72 type  2   force =     0.00000000    0.00000000    0.00000000
     The SCF correction term to forces
     atom    1 type  1   force =    -0.00003269   -0.00004210    0.00000000
     atom    2 type  1   force =     0.00002868    0.00001022    0.00000000
     atom    3 type  1   force =     0.00001211    0.00004487    0.00000000
     atom    4 type  1   force =     0.00002982    0.00003226    0.00000000
     atom    5 type  1   force =     0.00001642   -0.00000482    0.00000000
     atom    6 type  1   force =     0.00003256    0.00001000    0.00000000
     atom    7 type  1   force =     0.00007270   -0.00003969    0.00000000
     atom    8 type  3   force =     0.00000826   -0.00000113    0.00000000
     atom    9 type  1   force =    -0.00000509    0.00009000    0.00000000
     atom   10 type  3   force =     0.00000184    0.00001050    0.00000000
     atom   11 type  3   force =     0.00000261   -0.00000484    0.00000000
     atom   12 type  1   force =     0.00000872   -0.00000141    0.00000000
     atom   13 type  1   force =    -0.00004002   -0.00002136    0.00000000
     atom   14 type  1   force =    -0.00004450   -0.00002768    0.00000000
     atom   15 type  3   force =    -0.00000381   -0.00000287    0.00000000
     atom   16 type  1   force =    -0.00003454   -0.00001643    0.00000000
     atom   17 type  3   force =    -0.00001044   -0.00000674    0.00000000
     atom   18 type  1   force =    -0.00004152   -0.00002621    0.00000000
     atom   19 type  1   force =     0.00003809   -0.00001772    0.00000000
     atom   20 type  3   force =     0.00001146   -0.00000231    0.00000000
     atom   21 type  3   force =     0.00001210    0.00000816    0.00000000
     atom   22 type  3   force =     0.00001236    0.00000958    0.00000000
     atom   23 type  1   force =     0.00000569    0.00004103    0.00000000
     atom   24 type  3   force =     0.00000159    0.00000728    0.00000000
     atom   25 type  1   force =    -0.00002294   -0.00002503    0.00000000
     atom   26 type  1   force =    -0.00000219   -0.00001173    0.00000000
     atom   27 type  1   force =     0.00000221   -0.00000108    0.00000000
     atom   28 type  1   force =     0.00000471    0.00000996    0.00000000
     atom   29 type  1   force =    -0.00000281    0.00001162    0.00000000
     atom   30 type  1   force =     0.00000497    0.00000659    0.00000000
     atom   31 type  1   force =    -0.00001612   -0.00002982    0.00000000
     atom   32 type  1   force =    -0.00002185   -0.00003067    0.00000000
     atom   33 type  1   force =    -0.00002438    0.00000783    0.00000000
     atom   34 type  1   force =    -0.00002856    0.00001194    0.00000000
     atom   35 type  3   force =    -0.00000119   -0.00000119    0.00000000
     atom   36 type  1   force =    -0.00000852   -0.00001501    0.00000000
     atom   37 type  2   force =     0.00000641    0.00000023    0.00000000
     atom   38 type  2   force =     0.00000213   -0.00000063    0.00000000
     atom   39 type  2   force =     0.00000682    0.00000898    0.00000000
     atom   40 type  2   force =     0.00000711    0.00000180    0.00000000
     atom   41 type  2   force =     0.00000932    0.00000407    0.00000000
     atom   42 type  2   force =     0.00000578    0.00000742    0.00000000
     atom   43 type  2   force =     0.00000221   -0.00000584    0.00000000
     atom   44 type  2   force =    -0.00000050   -0.00000503    0.00000000
     atom   45 type  2   force =    -0.00000261    0.00000494    0.00000000
     atom   46 type  2   force =    -0.00000365    0.00000096    0.00000000
     atom   47 type  2   force =    -0.00000265   -0.00000108    0.00000000
     atom   48 type  2   force =    -0.00000326   -0.00000018    0.00000000
     atom   49 type  2   force =    -0.00000748   -0.00000615    0.00000000
     atom   50 type  2   force =    -0.00000139   -0.00000251    0.00000000
     atom   51 type  2   force =    -0.00000404   -0.00000155    0.00000000
     atom   52 type  2   force =    -0.00000318   -0.00000242    0.00000000
     atom   53 type  2   force =    -0.00000641   -0.00000278    0.00000000
     atom   54 type  2   force =    -0.00000144    0.00000118    0.00000000
     atom   55 type  2   force =    -0.00000139   -0.00000073    0.00000000
     atom   56 type  2   force =     0.00000591    0.00000029    0.00000000
     atom   57 type  2   force =     0.00000430    0.00000602    0.00000000
     atom   58 type  2   force =     0.00000460    0.00000348    0.00000000
     atom   59 type  2   force =     0.00000173   -0.00000306    0.00000000
     atom   60 type  2   force =     0.00000415    0.00000451    0.00000000
     atom   61 type  2   force =     0.00000395   -0.00000151    0.00000000
     atom   62 type  2   force =     0.00000078   -0.00000081    0.00000000
     atom   63 type  2   force =     0.00000095    0.00000594    0.00000000
     atom   64 type  2   force =     0.00000209    0.00000625    0.00000000
     atom   65 type  2   force =     0.00000252   -0.00000074    0.00000000
     atom   66 type  2   force =     0.00000581   -0.00000041    0.00000000
     atom   67 type  2   force =    -0.00000236   -0.00000793    0.00000000
     atom   68 type  2   force =    -0.00000618   -0.00000518    0.00000000
     atom   69 type  2   force =    -0.00000552    0.00000347    0.00000000
     atom   70 type  2   force =    -0.00000674   -0.00000156    0.00000000
     atom   71 type  2   force =    -0.00000455   -0.00000268    0.00000000
     atom   72 type  2   force =    -0.00000925   -0.00000551    0.00000000

     Total force =     0.000145     Total SCF correction =     0.000212
     SCF correction compared to forces is large: reduce conv_thr to get better values

     Computing stress (Cartesian axis) and pressure

          total   stress  (Ry/bohr**3)                   (kbar)     P=  140.63
   0.00142909  -0.00000325  -0.00000015        210.23     -0.48     -0.02
  -0.00000325   0.00143073  -0.00000028         -0.48    210.47     -0.04
  -0.00000015  -0.00000028   0.00000804         -0.02     -0.04      1.18

     kinetic stress (kbar)  32618.71      0.04      0.14
                                0.04  32618.35      0.20
                                0.14      0.20  33028.66

     local   stress (kbar) -11967.17   2075.36   1513.54
                             2075.36 -11894.71    424.23
                             1513.54    424.23   3031.74

     nonloc. stress (kbar)    384.17     -0.83     -0.15
                               -0.83    384.30     -0.07
                               -0.15     -0.07    103.64

     hartree stress (kbar)  58832.20  -1004.05   -739.13
                            -1004.05  58786.15   -209.71
                             -739.13   -209.71  54318.03

     exc-cor stress (kbar) -13282.45     -0.07     -0.00
                               -0.07 -13282.40     -0.00
                               -0.00     -0.00 -13295.32

     corecor stress (kbar)   -273.42      0.00     -0.00
                                0.00   -273.42     -0.00
                               -0.00     -0.00   -273.89

     ewald   stress (kbar) -66101.81  -1070.93   -774.42
                            -1070.93 -66127.80   -214.69
                             -774.42   -214.69 -76911.68

     hubbard stress (kbar)      0.00      0.00      0.00
                                0.00      0.00      0.00
                                0.00      0.00      0.00

     london  stress (kbar)      0.00      0.00      0.00
                                0.00      0.00      0.00
                                0.00      0.00      0.00

     DFT-D3  stress (kbar)      0.00      0.00      0.00
                                0.00      0.00      0.00
                                0.00      0.00      0.00

     XDM     stress (kbar)      0.00      0.00      0.00
                                0.00      0.00      0.00
                                0.00      0.00      0.00

     dft-nl  stress (kbar)      0.00      0.00      0.00
                                0.00      0.00      0.00
                                0.00      0.00      0.00

     TS-vdW  stress (kbar)      0.00      0.00      0.00
                                0.00      0.00      0.00
                                0.00      0.00      0.00

     Message from routine bfgs:
     history already reset at previous step: stopping

     bfgs converged in   4 scf cycles and   1 bfgs steps
     (criteria: energy <  1.0E-07 Ry, force <  1.0E-06 Ry/Bohr)

     End of BFGS Geometry Optimization

     Final energy   =  -14407.3445620927 Ry
Begin final coordinates

ATOMIC_POSITIONS (crystal)
Zn       0.226449670   0.113246319   0.251443060    1   1   0
Zn       0.227772678   0.114595209   0.755669578    1   1   0
Zn       0.221836386   0.443557691   0.253443822    1   1   0
Zn       0.222647862   0.444063908   0.752438457    1   1   0
Zn       0.219283862   0.776368885   0.251450926    1   1   0
Zn       0.220601752   0.776454655   0.754272642    1   1   0
Zn       0.553737137   0.109557160   0.253263490    1   1   0
Mg       0.554763815   0.110084370   0.752590853    1   1   0
Zn       0.558009616   0.448428642   0.252652024    1   1   0
Mg       0.557897019   0.447988555   0.753470604    1   1   0
Mg       0.552637094   0.777790319   0.253036891    1   1   0
Zn       0.552670511   0.777656194   0.753416757    1   1   0
Zn       0.887269447   0.107520712   0.252965919    1   1   0
Zn       0.889168807   0.110316896   0.753079677    1   1   0
Mg       0.884296521   0.439830170   0.251847122    1   1   0
Zn       0.885453879   0.441266802   0.752744868    1   1   0
Mg       0.889456397   0.778686999   0.255988669    1   1   0
Zn       0.890124327   0.778638948   0.750184621    1   1   0
Zn       0.112027059   0.222104433   0.502605677    1   1   0
Mg       0.112491119   0.222023776   0.002728663    1   1   0
Mg       0.110232527   0.554271450   0.502686019    1   1   0
Mg       0.111237698   0.554471531   0.002330648    1   1   0
Zn       0.113748955   0.891668441   0.502738855    1   1   0
Mg       0.114086706   0.891797692   0.001867781    1   1   0
Zn       0.447450186   0.225603254   0.505450161    1   1   0
Zn       0.447048466   0.225355936   0.001692431    1   1   0
Zn       0.443306738   0.556158277   0.505313453    1   1   0
Zn       0.442105369   0.554708583   0.004787931    1   1   0
Zn       0.440533566   0.887466820   0.501569159    1   1   0
Zn       0.440775246   0.887749135   0.002665653    1   1   0
Zn       0.777970428   0.220181935   0.503488816    1   1   0
Zn       0.777643762   0.219214824   0.004171054    1   1   0
Zn       0.780902247   0.556965307   0.501005158    1   1   0
Zn       0.781346552   0.558021781   0.004196366    1   1   0
Mg       0.776684195   0.888912744   0.501089584    1   1   0
Zn       0.776530499   0.887215493   0.003137793    1   1   0
O        0.225164203   0.113151975   0.003138151    1   1   0
O        0.224851409   0.113234093   0.502605651    1   1   0
O        0.220759715   0.443343249   0.002728600    1   1   0
O        0.221312307   0.443720093   0.502686087    1   1   0
O        0.219023117   0.775462056   0.002330316    1   1   0
O        0.218763195   0.775642185   0.502738722    1   1   0
O        0.554792291   0.110447820   0.001867761    1   1   0
O        0.554760276   0.110307623   0.505450352    1   1   0
O        0.558116469   0.447952080   0.001692170    1   1   0
O        0.557794576   0.448059716   0.505313923    1   1   0
O        0.554134870   0.778051829   0.004787448    1   1   0
O        0.554082469   0.778554391   0.501569000    1   1   0
O        0.889446361   0.109152243   0.002666860    1   1   0
O        0.890101383   0.110689312   0.503488705    1   1   0
O        0.888102975   0.442183675   0.004170624    1   1   0
O        0.887819436   0.442350477   0.501004715    1   1   0
O        0.891136387   0.780197317   0.004196321    1   1   0
O        0.890259613   0.779735085   0.501089546    1   1   0
O        0.110677854   0.220710165   0.251443061    1   1   0
O        0.111909791   0.221418519   0.755669114    1   1   0
O        0.108012779   0.553051862   0.253443589    1   1   0
O        0.109108845   0.553577369   0.752438279    1   1   0
O        0.111824536   0.890973651   0.251451229    1   1   0
O        0.112761493   0.891510394   0.754272436    1   1   0
O        0.448597171   0.226167584   0.253263604    1   1   0
O        0.449234718   0.226183800   0.752591096    1   1   0
O        0.443799970   0.555649536   0.252652001    1   1   0
O        0.444504392   0.556263347   0.753470505    1   1   0
O        0.441442606   0.888208125   0.253036884    1   1   0
O        0.442535576   0.888458018   0.753416659    1   1   0
O        0.776105410   0.218299337   0.252965894    1   1   0
O        0.777327270   0.220100437   0.753079821    1   1   0
O        0.779993494   0.556897684   0.251847393    1   1   0
O        0.780500654   0.557413099   0.752745187    1   1   0
O        0.774912637   0.885747570   0.255988199    1   1   0
O        0.776131655   0.887190429   0.750184958    1   1   0
End final coordinates

     Writing output data file ZnO.save/

     General routines

     Parallel routines

   This run was terminated on:  20: 3: 1   8Nov2021

   JOB DONE.