     Program PWSCF v.6.4.1 starts on 19Oct2021 at 22:33: 3

     K-points division:     npool     =       8
     R & G space division:  proc/nbgrp/npool/nimage =      16
     Waiting for input...
     Reading input from standard input
Warning: card &CELL ignored
Warning: card   CELL_DYNAMICS     = 'BFGS' ignored
Warning: card   PRESS_CONV_THR    = 0.5D0 ignored
Warning: card   CELL_DOFREE = 'ALL' ignored
Warning: card / ignored

     Current dimensions of program PWSCF are:
     Max number of different atomic species (ntypx) = 10
     Max number of k-points (npk) =  40000
     Max angular momentum in pseudopotentials (lmaxx) =  3

     bravais-lattice index     =            0
     lattice parameter (alat)  =      18.3770  a.u.
     unit-cell volume          =    5753.7501 (a.u.)^3
     number of atoms/cell      =           72
     number of atomic types    =            3
     number of electrons       =       876.00
     number of Kohn-Sham states=          526
     kinetic-energy cutoff     =      60.0000  Ry
     charge density cutoff     =     500.0000  Ry
     convergence threshold     =      1.0E-08
     mixing beta               =       0.5000
     number of iterations used =            8  plain     mixing
     Exchange-correlation      = SLA  PW   PSX  PSC ( 1  4 10  8 0 0)
     nstep                     =          200

     celldm(1)=  18.377017  celldm(2)=   0.000000  celldm(3)=   0.000000
     celldm(4)=   0.000000  celldm(5)=   0.000000  celldm(6)=   0.000000

     crystal axes: (cart. coord. in units of alat)
               a(1) = (   1.000000   0.000006   0.000017 )
               a(2) = (  -0.499993   0.865992  -0.000022 )
               a(3) = (   0.000019  -0.000017   1.070560 )

     reciprocal axes: (cart. coord. in units 2 pi/alat)
               b(1) = (  0.999997  0.577363 -0.000009 )
               b(2) = ( -0.000007  1.154742  0.000018 )
               b(3) = ( -0.000016  0.000014  0.934091 )

     PseudoPot. # 1 for Zn read from file:
     ./GBRV_PBEsol/zn_pbesol_v1.uspp.F.UPF
     MD5 check sum: 7d8615e52efe7c1e2b1899de8658bae2
     Pseudo is Ultrasoft, Zval = 20.0
     Generated by new atomic code, or converted to UPF format
     Using radial grid of  943 points,  6 beta functions with:
                l(1) =   0
                l(2) =   0
                l(3) =   1
                l(4) =   1
                l(5) =   2
                l(6) =   2
     Q(r) pseudized with  8 coefficients,  rinner =    1.100   1.100   1.100
                                                       1.100   1.100

     PseudoPot. # 2 for O  read from file:
     ./GBRV_PBEsol/o_pbesol_v1.2.uspp.F.UPF
     MD5 check sum: 501638753501ef6325af9037351f7734
     Pseudo is Ultrasoft + core correction, Zval =  6.0
     Generated by new atomic code, or converted to UPF format
     Using radial grid of  737 points,  5 beta functions with:
                l(1) =   0
                l(2) =   0
                l(3) =   1
                l(4) =   1
                l(5) =   2
     Q(r) pseudized with  8 coefficients,  rinner =    0.900   0.900   0.900
                                                       0.900   0.900

     PseudoPot. # 3 for Mg read from file:
     ./GBRV_PBEsol/mg_pbesol_v1.4.uspp.F.UPF
     MD5 check sum: 4059f37963cf5867752dbf5ab2400678
     Pseudo is Ultrasoft, Zval = 10.0
     Generated by new atomic code, or converted to UPF format
     Using radial grid of  821 points,  7 beta functions with:
                l(1) =   0
                l(2) =   0
                l(3) =   0
                l(4) =   1
                l(5) =   1
                l(6) =   2
                l(7) =   2
     Q(r) pseudized with  8 coefficients,  rinner =    1.200   1.200   1.200
                                                       1.200   1.200

     atomic species   valence    mass     pseudopotential
        Zn            20.00    65.38000     Zn( 1.00)
        O              6.00    15.99900     O ( 1.00)
        Mg            10.00    24.30500     Mg( 1.00)

     No symmetry found

                                    s                        frac. trans.

      isym =  1     identity

 cryst.   s( 1) = (     1          0          0      )
                  (     0          1          0      )
                  (     0          0          1      )

 cart.    s( 1) = (  1.0000000 -0.0000000 -0.0000000 )
                  ( -0.0000000  1.0000000  0.0000000 )
                  ( -0.0000000 -0.0000000  1.0000000 )

   Cartesian axes

     site n.     atom                  positions (alat units)
         1           Zn  tau(   1) = (   0.1666496   0.0974613   0.2072050  )
         2           Zn  tau(   2) = (   0.4998443   0.0953414   0.2067885  )
         3           Zn  tau(   3) = (   0.8332375   0.0974525   0.2054954  )
         4           Zn  tau(   4) = (   0.0000019   0.3848113   0.2063762  )
         5           Zn  tau(   5) = (   0.3333068   0.3847911   0.2078698  )
         6           Zn  tau(   6) = (   0.6668743   0.3848917   0.2077000  )
         7           Zn  tau(   7) = (  -0.1647474   0.6732884   0.2069016  )
         8           Zn  tau(   8) = (   0.1647491   0.6732755   0.2070727  )
         9           Zn  tau(   9) = (   0.5002196   0.6726775   0.2048026  )
        10           Zn  tau(  10) = (   0.1658380   0.0950787   0.7429130  )
        11           Zn  tau(  11) = (   0.4994346   0.0978268   0.7429021  )
        12           Zn  tau(  12) = (   0.3340184   0.3847514   0.7435294  )
        13           Zn  tau(  13) = (   0.6659834   0.3846958   0.7436107  )
        14           Zn  tau(  14) = (  -0.1688640   0.6739439   0.7423157  )
        15           Zn  tau(  15) = (   0.1701791   0.6739891   0.7426655  )
        16           Zn  tau(  16) = (  -0.0007674   0.1929068   0.4746686  )
        17           Zn  tau(  17) = (   0.3335813   0.1926665   0.4758335  )
        18           Zn  tau(  18) = (   0.6666694   0.1924456   0.4748818  )
        19           Zn  tau(  19) = (  -0.1665039   0.4809063   0.4753793  )
        20           Zn  tau(  20) = (   0.1666965   0.4810500   0.4753015  )
        21           Zn  tau(  21) = (   0.5000948   0.4815953   0.4746064  )
        22           Zn  tau(  22) = (  -0.3339216   0.7689472   0.4731192  )
        23           Zn  tau(  23) = (   0.3340878   0.7697159   0.4723359  )
        24           Zn  tau(  24) = (   0.0005473   0.1921763   1.0088368  )
        25           Zn  tau(  25) = (   0.3328381   0.1929994   1.0108631  )
        26           Zn  tau(  26) = (   0.6660688   0.1932908   1.0101972  )
        27           Zn  tau(  27) = (  -0.1667855   0.4815437   1.0097988  )
        28           Zn  tau(  28) = (   0.1670067   0.4814090   1.0103052  )
        29           Zn  tau(  29) = (   0.5001926   0.4811426   1.0104664  )
        30           Zn  tau(  30) = (   0.0000894   0.7686129   1.0086570  )
        31           Mg  tau(  31) = (   0.8325174   0.0950947   0.7431033  )
        32           Mg  tau(  32) = (   0.0011534   0.3854960   0.7437698  )
        33           Mg  tau(  33) = (   0.4998394   0.6730018   0.7422036  )
        34           Mg  tau(  34) = (   0.0000893   0.7698364   0.4769836  )
        35           Mg  tau(  35) = (  -0.3315087   0.7699199   1.0115536  )
        36           Mg  tau(  36) = (   0.3318629   0.7685323   1.0115595  )
        37           O   tau(  37) = (   0.1666075   0.0962372   0.0036959  )
        38           O   tau(  38) = (   0.4996974   0.0955623   0.0031459  )
        39           O   tau(  39) = (   0.8331148   0.0958824   0.0016961  )
        40           O   tau(  40) = (   0.0000225   0.3846331   0.0024430  )
        41           O   tau(  41) = (   0.3335674   0.3851730   0.0042370  )
        42           O   tau(  42) = (   0.6667639   0.3852116   0.0041244  )
        43           O   tau(  43) = (  -0.1659124   0.6734413   0.0036108  )
        44           O   tau(  44) = (   0.1658181   0.6732712   0.0038616  )
        45           O   tau(  45) = (   0.5004310   0.6744596   0.0011154  )
        46           O   tau(  46) = (   0.1663165   0.0957376   0.5384948  )
        47           O   tau(  47) = (   0.5000746   0.0962797   0.5392077  )
        48           O   tau(  48) = (   0.8331296   0.0957031   0.5395975  )
        49           O   tau(  49) = (   0.0001418   0.3850056   0.5404671  )
        50           O   tau(  50) = (   0.3335265   0.3850787   0.5394109  )
        51           O   tau(  51) = (   0.6666124   0.3848836   0.5391975  )
        52           O   tau(  52) = (  -0.1670262   0.6737183   0.5384711  )
        53           O   tau(  53) = (   0.1673948   0.6738955   0.5384997  )
        54           O   tau(  54) = (   0.4998556   0.6738028   0.5391344  )
        55           O   tau(  55) = (  -0.0003613   0.1926957   0.2711215  )
        56           O   tau(  56) = (   0.3336496   0.1924037   0.2717806  )
        57           O   tau(  57) = (   0.6664478   0.1922659   0.2710285  )
        58           O   tau(  58) = (  -0.1663141   0.4809395   0.2714719  )
        59           O   tau(  59) = (   0.1664026   0.4808769   0.2714524  )
        60           O   tau(  60) = (   0.5000797   0.4812380   0.2711567  )
        61           O   tau(  61) = (  -0.3330793   0.7696409   0.2690290  )
        62           O   tau(  62) = (   0.0000118   0.7700358   0.2738241  )
        63           O   tau(  63) = (   0.3332758   0.7698545   0.2683629  )
        64           O   tau(  64) = (  -0.0010392   0.1926891   0.8050481  )
        65           O   tau(  65) = (   0.3322759   0.1922218   0.8070359  )
        66           O   tau(  66) = (   0.6667715   0.1922822   0.8065812  )
        67           O   tau(  67) = (  -0.1664187   0.4809977   0.8061558  )
        68           O   tau(  68) = (   0.1673604   0.4815195   0.8067349  )
        69           O   tau(  69) = (   0.5001068   0.4812856   0.8066321  )
        70           O   tau(  70) = (  -0.3345114   0.7692917   0.8083812  )
        71           O   tau(  71) = (   0.0003701   0.7694426   0.8043107  )
        72           O   tau(  72) = (   0.3351396   0.7701146   0.8084773  )

   Crystallographic axes

     site n.     atom                  positions (cryst. coord.)
         1           Zn  tau(   1) = (  0.2229179  0.1125453  0.1935470  )
         2           Zn  tau(   2) = (  0.5548875  0.1100950  0.1931525  )
         3           Zn  tau(   3) = (  0.8894985  0.1125306  0.1919392  )
         4           Zn  tau(   4) = (  0.2221761  0.4443614  0.1927797  )
         5           Zn  tau(   5) = (  0.5554682  0.4443359  0.1941694  )
         6           Zn  tau(   6) = (  0.8890926  0.4444497  0.1940054  )
         7           Zn  tau(   7) = (  0.2239835  0.7774791  0.1932773  )
         8           Zn  tau(   8) = (  0.5534714  0.7774620  0.1934318  )
         9           Zn  tau(   9) = (  0.8885955  0.7767692  0.1913058  )
        10           Zn  tau(  10) = (  0.2207260  0.1098035  0.6939469  )
        11           Zn  tau(  11) = (  0.5559082  0.1129747  0.6939315  )
        12           Zn  tau(  12) = (  0.5561522  0.4442996  0.6945242  )
[...]
     atom   14 type  1   force =     0.00000000    0.00000000    0.00000000
     atom   15 type  1   force =     0.00000000    0.00000000    0.00000000
     atom   16 type  1   force =     0.00000000    0.00000000    0.00000000
     atom   17 type  1   force =     0.00000000    0.00000000    0.00000000
     atom   18 type  1   force =     0.00000000    0.00000000    0.00000000
     atom   19 type  1   force =     0.00000000    0.00000000    0.00000000
     atom   20 type  1   force =     0.00000000    0.00000000    0.00000000
     atom   21 type  1   force =     0.00000000    0.00000000    0.00000000
     atom   22 type  1   force =     0.00000000    0.00000000    0.00000000
     atom   23 type  1   force =     0.00000000    0.00000000    0.00000000
     atom   24 type  1   force =     0.00000000    0.00000000    0.00000000
     atom   25 type  1   force =     0.00000000    0.00000000    0.00000000
     atom   26 type  1   force =     0.00000000    0.00000000    0.00000000
     atom   27 type  1   force =     0.00000000    0.00000000    0.00000000
     atom   28 type  1   force =     0.00000000    0.00000000    0.00000000
     atom   29 type  1   force =     0.00000000    0.00000000    0.00000000
     atom   30 type  1   force =     0.00000000    0.00000000    0.00000000
     atom   31 type  3   force =     0.00000000    0.00000000    0.00000000
     atom   32 type  3   force =     0.00000000    0.00000000    0.00000000
     atom   33 type  3   force =     0.00000000    0.00000000    0.00000000
     atom   34 type  3   force =     0.00000000    0.00000000    0.00000000
     atom   35 type  3   force =     0.00000000    0.00000000    0.00000000
     atom   36 type  3   force =     0.00000000    0.00000000    0.00000000
     atom   37 type  2   force =     0.00000000    0.00000000    0.00000000
     atom   38 type  2   force =     0.00000000    0.00000000    0.00000000
     atom   39 type  2   force =     0.00000000    0.00000000    0.00000000
     atom   40 type  2   force =     0.00000000    0.00000000    0.00000000
     atom   41 type  2   force =     0.00000000    0.00000000    0.00000000
     atom   42 type  2   force =     0.00000000    0.00000000    0.00000000
     atom   43 type  2   force =     0.00000000    0.00000000    0.00000000
     atom   44 type  2   force =     0.00000000    0.00000000    0.00000000
     atom   45 type  2   force =     0.00000000    0.00000000    0.00000000
     atom   46 type  2   force =     0.00000000    0.00000000    0.00000000
     atom   47 type  2   force =     0.00000000    0.00000000    0.00000000
     atom   48 type  2   force =     0.00000000    0.00000000    0.00000000
     atom   49 type  2   force =     0.00000000    0.00000000    0.00000000
     atom   50 type  2   force =     0.00000000    0.00000000    0.00000000
     atom   51 type  2   force =     0.00000000    0.00000000    0.00000000
     atom   52 type  2   force =     0.00000000    0.00000000    0.00000000
     atom   53 type  2   force =     0.00000000    0.00000000    0.00000000
     atom   54 type  2   force =     0.00000000    0.00000000    0.00000000
     atom   55 type  2   force =     0.00000000    0.00000000    0.00000000
     atom   56 type  2   force =     0.00000000    0.00000000    0.00000000
     atom   57 type  2   force =     0.00000000    0.00000000    0.00000000
     atom   58 type  2   force =     0.00000000    0.00000000    0.00000000
     atom   59 type  2   force =     0.00000000    0.00000000    0.00000000
     atom   60 type  2   force =     0.00000000    0.00000000    0.00000000
     atom   61 type  2   force =     0.00000000    0.00000000    0.00000000
     atom   62 type  2   force =     0.00000000    0.00000000    0.00000000
     atom   63 type  2   force =     0.00000000    0.00000000    0.00000000
     atom   64 type  2   force =     0.00000000    0.00000000    0.00000000
     atom   65 type  2   force =     0.00000000    0.00000000    0.00000000
     atom   66 type  2   force =     0.00000000    0.00000000    0.00000000
     atom   67 type  2   force =     0.00000000    0.00000000    0.00000000
     atom   68 type  2   force =     0.00000000    0.00000000    0.00000000
     atom   69 type  2   force =     0.00000000    0.00000000    0.00000000
     atom   70 type  2   force =     0.00000000    0.00000000    0.00000000
     atom   71 type  2   force =     0.00000000    0.00000000    0.00000000
     atom   72 type  2   force =     0.00000000    0.00000000    0.00000000
     The SCF correction term to forces
     atom    1 type  1   force =    -0.00000134   -0.00000103    0.00000346
     atom    2 type  1   force =    -0.00000033    0.00000028    0.00000234
     atom    3 type  1   force =     0.00000158   -0.00000062    0.00000275
     atom    4 type  1   force =    -0.00000024   -0.00000101    0.00000307
     atom    5 type  1   force =    -0.00000017    0.00000007    0.00000292
     atom    6 type  1   force =     0.00000052    0.00000066    0.00000241
     atom    7 type  1   force =    -0.00000218    0.00000051    0.00000212
     atom    8 type  1   force =     0.00000157    0.00000032    0.00000238
     atom    9 type  1   force =     0.00000058    0.00000230    0.00000231
     atom   10 type  1   force =    -0.00000094   -0.00000080   -0.00000106
     atom   11 type  1   force =    -0.00000014    0.00000022   -0.00000339
     atom   12 type  1   force =    -0.00000089    0.00000014   -0.00000359
     atom   13 type  1   force =     0.00000136    0.00000041   -0.00000324
     atom   14 type  1   force =    -0.00000107   -0.00000058   -0.00000294
     atom   15 type  1   force =     0.00000163   -0.00000002   -0.00000309
     atom   16 type  1   force =    -0.00000104   -0.00000027    0.00000041
     atom   17 type  1   force =     0.00000084    0.00000076    0.00000053
     atom   18 type  1   force =     0.00000059    0.00000051    0.00000186
     atom   19 type  1   force =    -0.00000084   -0.00000132    0.00000318
     atom   20 type  1   force =     0.00000027   -0.00000062    0.00000244
     atom   21 type  1   force =     0.00000061   -0.00000003    0.00000126
     atom   22 type  1   force =    -0.00000074   -0.00000009    0.00000007
     atom   23 type  1   force =     0.00000057    0.00000031    0.00000072
     atom   24 type  1   force =    -0.00000057   -0.00000224   -0.00000200
     atom   25 type  1   force =    -0.00000014   -0.00000096   -0.00000072
     atom   26 type  1   force =     0.00000074   -0.00000052   -0.00000044
     atom   27 type  1   force =    -0.00000121    0.00000031   -0.00000040
     atom   28 type  1   force =     0.00000061    0.00000048   -0.00000032
     atom   29 type  1   force =     0.00000059    0.00000160    0.00000029
     atom   30 type  1   force =    -0.00000020    0.00000052   -0.00000051
     atom   31 type  3   force =     0.00000068   -0.00000033   -0.00000069
     atom   32 type  3   force =    -0.00000021   -0.00000015   -0.00000158
     atom   33 type  3   force =    -0.00000027    0.00000107   -0.00000051
     atom   34 type  3   force =     0.00000008    0.00000020    0.00000083
     atom   35 type  3   force =    -0.00000067   -0.00000005   -0.00000059
     atom   36 type  3   force =     0.00000078    0.00000031   -0.00000093
     atom   37 type  2   force =    -0.00000074   -0.00000078   -0.00000050
     atom   38 type  2   force =     0.00000004   -0.00000010   -0.00000024
     atom   39 type  2   force =     0.00000077   -0.00000057   -0.00000056
     atom   40 type  2   force =    -0.00000017   -0.00000073   -0.00000047
     atom   41 type  2   force =     0.00000011    0.00000008   -0.00000013
     atom   42 type  2   force =    -0.00000000    0.00000013   -0.00000023
     atom   43 type  2   force =    -0.00000097    0.00000054   -0.00000025
     atom   44 type  2   force =     0.00000085    0.00000067   -0.00000038
     atom   45 type  2   force =     0.00000009    0.00000090   -0.00000033
     atom   46 type  2   force =    -0.00000037   -0.00000023    0.00000033
     atom   47 type  2   force =     0.00000021    0.00000008    0.00000006
     atom   48 type  2   force =     0.00000022   -0.00000010    0.00000012
     atom   49 type  2   force =    -0.00000014   -0.00000019    0.00000048
     atom   50 type  2   force =    -0.00000030    0.00000000    0.00000003
     atom   51 type  2   force =     0.00000040   -0.00000014    0.00000017
     atom   52 type  2   force =    -0.00000028   -0.00000007    0.00000068
     atom   53 type  2   force =     0.00000039    0.00000008    0.00000063
     atom   54 type  2   force =    -0.00000012    0.00000053    0.00000013
     atom   55 type  2   force =    -0.00000001   -0.00000074    0.00000150
     atom   56 type  2   force =    -0.00000026   -0.00000027    0.00000147
     atom   57 type  2   force =     0.00000039   -0.00000023    0.00000157
     atom   58 type  2   force =    -0.00000031    0.00000020    0.00000142
     atom   59 type  2   force =     0.00000017    0.00000011    0.00000156
     atom   60 type  2   force =     0.00000006    0.00000061    0.00000131
     atom   61 type  2   force =    -0.00000051   -0.00000002    0.00000106
     atom   62 type  2   force =    -0.00000014    0.00000004    0.00000144
     atom   63 type  2   force =     0.00000057    0.00000010    0.00000128
     atom   64 type  2   force =     0.00000001   -0.00000044   -0.00000104
     atom   65 type  2   force =    -0.00000063   -0.00000055   -0.00000133
     atom   66 type  2   force =     0.00000077   -0.00000015   -0.00000139
     atom   67 type  2   force =     0.00000010    0.00000017   -0.00000191
     atom   68 type  2   force =    -0.00000052    0.00000038   -0.00000192
     atom   69 type  2   force =     0.00000030    0.00000076   -0.00000129
     atom   70 type  2   force =    -0.00000018    0.00000024   -0.00000094
     atom   71 type  2   force =    -0.00000003   -0.00000053   -0.00000159
     atom   72 type  2   force =     0.00000013    0.00000013   -0.00000101

     Total force =     0.000096     Total SCF correction =     0.000016
     SCF correction compared to forces is large: reduce conv_thr to get better values

     Computing stress (Cartesian axis) and pressure

          total   stress  (Ry/bohr**3)                   (kbar)     P=    0.04
   0.00000029  -0.00000000  -0.00000000          0.04     -0.00     -0.00
  -0.00000000   0.00000029  -0.00000000         -0.00      0.04     -0.00
  -0.00000000  -0.00000000   0.00000029         -0.00     -0.00      0.04

     kinetic stress (kbar)  31325.57     -0.07     -0.06
                               -0.07  31325.62     -0.02
                               -0.06     -0.02  31357.14

     local   stress (kbar)  -8649.40     -9.21   -449.47
                               -9.21  -7940.79    361.57
                             -449.47    361.57  -9787.58

     nonloc. stress (kbar)   -519.93      0.03      0.03
                                0.03   -519.94      0.05
                                0.03      0.05   -533.49

     hartree stress (kbar)  58587.72      4.74    220.62
                                4.74  58236.12   -177.92
                              220.62   -177.92  59091.72

     exc-cor stress (kbar) -12889.60      0.00      0.00
                                0.00 -12889.60     -0.00
                                0.00     -0.00 -12889.76

     corecor stress (kbar)   -248.57      0.00      0.00
                                0.00   -248.57     -0.00
                                0.00     -0.00   -248.60

     ewald   stress (kbar) -67605.75      4.51    228.88
                                4.51 -67962.80   -183.69
                              228.88   -183.69 -66989.38

     hubbard stress (kbar)      0.00      0.00      0.00
                                0.00      0.00      0.00
                                0.00      0.00      0.00

     london  stress (kbar)      0.00      0.00      0.00
                                0.00      0.00      0.00
                                0.00      0.00      0.00

     DFT-D3  stress (kbar)      0.00      0.00      0.00
                                0.00      0.00      0.00
                                0.00      0.00      0.00

     XDM     stress (kbar)      0.00      0.00      0.00
                                0.00      0.00      0.00
                                0.00      0.00      0.00

     dft-nl  stress (kbar)      0.00      0.00      0.00
                                0.00      0.00      0.00
                                0.00      0.00      0.00

     TS-vdW  stress (kbar)      0.00      0.00      0.00
                                0.00      0.00      0.00
                                0.00      0.00      0.00

     Message from routine bfgs:
     history already reset at previous step: stopping

     bfgs converged in   4 scf cycles and   1 bfgs steps
     (criteria: energy <  1.0E-07 Ry, force <  1.0E-06 Ry/Bohr)

     End of BFGS Geometry Optimization

     Final energy   =  -15751.7177653819 Ry
Begin final coordinates

ATOMIC_POSITIONS (crystal)
Zn       0.222917013   0.112544666   0.193546815
Zn       0.554887164   0.110094557   0.193152846
Zn       0.889497959   0.112530422   0.191939194
Zn       0.222176489   0.444362403   0.192779500
Zn       0.555468256   0.444336445   0.194169122
Zn       0.889093936   0.444450377   0.194004937
Zn       0.223982913   0.777478550   0.193277738
Zn       0.553471805   0.777461892   0.193432283
Zn       0.888596041   0.776769538   0.191305834
Zn       0.220724278   0.109802761   0.693946816
Zn       0.555906823   0.112972000   0.693930979
Zn       0.556152063   0.444299701   0.694523395
Zn       0.888085677   0.444233552   0.694594419
Zn       0.220241889   0.778245980   0.693402785
Zn       0.559307932   0.778296952   0.693723953
Zn       0.110605215   0.222765521   0.443388458
Zn       0.444812978   0.222484898   0.444469986
Zn       0.777773861   0.222227888   0.443575933
Zn       0.111151048   0.555332618   0.444058351
Zn       0.444432192   0.555496422   0.443980363
Zn       0.778145024   0.556124101   0.443325296
Zn       0.110038444   0.887947275   0.441955062
Zn       0.778488456   0.888830290   0.441212626
Zn       0.111492434   0.221930589   0.942346585
Zn       0.444258429   0.222879608   0.944233515
Zn       0.777656754   0.223213219   0.943606401
Zn       0.111232091   0.556077468   0.943251918
Zn       0.444945156   0.555919827   0.943719630
Zn       0.777977534   0.555611924   0.943865187
Zn       0.443850558   0.887568423   0.942186317
Mg       0.887412416   0.109817828   0.694114054
Mg       0.223718202   0.445161961   0.694753873
Mg       0.888398463   0.777153400   0.693287663
Mg       0.444560726   0.888970837   0.445557650
Mg       0.113006849   0.889079059   0.944899080
Mg       0.775576157   0.887472715   0.944894298
O        0.222170645   0.111128017   0.003450855
O        0.554869665   0.110346537   0.002931859
O        0.888470508   0.110713640   0.001572074
O        0.222095529   0.444151865   0.002287564
O        0.555951180   0.444773274   0.003957713
O        0.889168855   0.444815465   0.003847165
O        0.222908623   0.777651978   0.003385296
O        0.554539676   0.777453298   0.003614321
O        0.889837845   0.778823814   0.001043463
O        0.221586365   0.110560700   0.503001867
O        0.555656217   0.111184175   0.503662100
O        0.888377391   0.110516338   0.504021366
O        0.222425373   0.444591778   0.504851282
O        0.555851351   0.444674022   0.503858676
O        0.888823166   0.444446561   0.503654213
O        0.221950393   0.777981633   0.502993341
O        0.556472234   0.778184056   0.503014662
O        0.888878474   0.778074845   0.503602489
O        0.110891502   0.222518780   0.253255050
O        0.444732678   0.222179187   0.253865274
O        0.777450389   0.222017986   0.253157399
O        0.111361054   0.555366958   0.253589371
O        0.444040779   0.555292626   0.253565727
O        0.777925056   0.555707187   0.253283780
O        0.111281937   0.888743568   0.251314333
O        0.444600027   0.889197221   0.255788018
O        0.777758602   0.888985947   0.250681355
O        0.110205243   0.222521007   0.751990687
O        0.443249442   0.221978589   0.753841912
O        0.777778598   0.222046019   0.753411823
O        0.111285881   0.555443864   0.753032138
O        0.445364809   0.556044355   0.753567649
O        0.777974977   0.555771846   0.753466566
O        0.109643409   0.888349632   0.755118241
O        0.444611063   0.888521841   0.751310139
O        0.779767835   0.889295723   0.755197372
End final coordinates

     Writing output data file ZnO.save/

     General routines

     Parallel routines

   This run was terminated on:  23: 5:56  19Oct2021

   JOB DONE.