     Program PWSCF v.6.4.1 starts on 16Jun2022 at 15:59:42

     K-points division:     npool     =       4
     R & G space division:  proc/nbgrp/npool/nimage =      16
     Waiting for input...
     Reading input from standard input

     Current dimensions of program PWSCF are:
     Max number of different atomic species (ntypx) = 10
     Max number of k-points (npk) =  40000
     Max angular momentum in pseudopotentials (lmaxx) =  3

     bravais-lattice index     =            0
     lattice parameter (alat)  =       6.1292  a.u.
     unit-cell volume          =     323.4009 (a.u.)^3
     number of atoms/cell      =            4
     number of atomic types    =            2
     number of electrons       =        32.00
     number of Kohn-Sham states=           16
     kinetic-energy cutoff     =      80.0000  Ry
     charge density cutoff     =     600.0000  Ry
     convergence threshold     =      1.0E-06
     mixing beta               =       0.5000
     number of iterations used =            8  plain     mixing
     Exchange-correlation      = SLA  PW   PSX  PSC ( 1  4 10  8 0 0)
     nstep                     =          200

     celldm(1)=   6.129151  celldm(2)=   0.000000  celldm(3)=   0.000000
     celldm(4)=   0.000000  celldm(5)=   0.000000  celldm(6)=   0.000000

     crystal axes: (cart. coord. in units of alat)
               a(1) = (   1.000000  -0.000000   0.000000 )
               a(2) = (  -0.500000   0.866025  -0.000000 )
               a(3) = (   0.000000   0.000000   1.621846 )

     reciprocal axes: (cart. coord. in units 2 pi/alat)
               b(1) = (  1.000000  0.577350 -0.000000 )
               b(2) = (  0.000000  1.154701 -0.000000 )
               b(3) = ( -0.000000 -0.000000  0.616581 )

     PseudoPot. # 1 for Mg read from file:
     ./GBRV_PBEsol/mg_pbesol_v1.4.uspp.F.UPF
     MD5 check sum: 4059f37963cf5867752dbf5ab2400678
     Pseudo is Ultrasoft, Zval = 10.0
     Generated by new atomic code, or converted to UPF format
     Using radial grid of  821 points,  7 beta functions with:
                l(1) =   0
                l(2) =   0
                l(3) =   0
                l(4) =   1
                l(5) =   1
                l(6) =   2
                l(7) =   2
     Q(r) pseudized with  8 coefficients,  rinner =    1.200   1.200   1.200
                                                       1.200   1.200

     PseudoPot. # 2 for O  read from file:
     ./GBRV_PBEsol/o_pbesol_v1.2.uspp.F.UPF
     MD5 check sum: 501638753501ef6325af9037351f7734
     Pseudo is Ultrasoft + core correction, Zval =  6.0
     Generated by new atomic code, or converted to UPF format
     Using radial grid of  737 points,  5 beta functions with:
                l(1) =   0
                l(2) =   0
                l(3) =   1
                l(4) =   1
                l(5) =   2
     Q(r) pseudized with  8 coefficients,  rinner =    0.900   0.900   0.900
                                                       0.900   0.900

     atomic species   valence    mass     pseudopotential
        Mg            10.00    24.30500     Mg( 1.00)
        O              6.00    15.99900     O ( 1.00)

     No symmetry found

                                    s                        frac. trans.

      isym =  1     identity

 cryst.   s( 1) = (     1          0          0      )
                  (     0          1          0      )
                  (     0          0          1      )

 cart.    s( 1) = (  1.0000000 -0.0000000 -0.0000000 )
                  (  0.0000000  1.0000000 -0.0000000 )
                  ( -0.0000000  0.0000000  1.0000000 )

   Cartesian axes

     site n.     atom                  positions (alat units)
         1           O   tau(   1) = (   0.5000002   0.2886755   0.0119139  )
         2           O   tau(   2) = (   0.0000001   0.5773494   0.8228368  )
         3           Mg  tau(   3) = (   0.5000001   0.2886748   1.0320685  )
         4           Mg  tau(   4) = (  -0.0000001   0.5773512   1.8429915  )

   Crystallographic axes

     site n.     atom                  positions (cryst. coord.)
         1           O   tau(   1) = (  0.6666670  0.3333337  0.0073459  )
         2           O   tau(   2) = (  0.3333329  0.6666657  0.5073458  )
         3           Mg  tau(   3) = (  0.6666664  0.3333329  0.6363540  )
         4           Mg  tau(   4) = (  0.3333336  0.6666677  1.1363539  )

     number of k points=   260
                       cart. coord. in units 2pi/alat
        k(    1) = (   0.0000000   0.0000000   0.0000000), wk =   0.0039062
        k(    2) = (  -0.0000000  -0.0000000   0.0770727), wk =   0.0078125
        k(    3) = (  -0.0000000  -0.0000000   0.1541453), wk =   0.0078125
        k(    4) = (  -0.0000000  -0.0000000   0.2312180), wk =   0.0078125
        k(    5) = (   0.0000000   0.0000000  -0.3082906), wk =   0.0039062
        k(    6) = (   0.0000000   0.1443376  -0.0000000), wk =   0.0078125
        k(    7) = (  -0.0000000   0.1443376   0.0770727), wk =   0.0078125
        k(    8) = (  -0.0000000   0.1443376   0.1541453), wk =   0.0078125
        k(    9) = (  -0.0000000   0.1443376   0.2312180), wk =   0.0078125
        k(   10) = (   0.0000000   0.1443376  -0.3082906), wk =   0.0078125
        k(   11) = (   0.0000000   0.1443376  -0.2312180), wk =   0.0078125
        k(   12) = (   0.0000000   0.1443376  -0.1541453), wk =   0.0078125
        k(   13) = (   0.0000000   0.1443376  -0.0770727), wk =   0.0078125
        k(   14) = (   0.0000000   0.2886751  -0.0000000), wk =   0.0078125
        k(   15) = (   0.0000000   0.2886751   0.0770727), wk =   0.0078125
        k(   16) = (  -0.0000000   0.2886751   0.1541453), wk =   0.0078125
        k(   17) = (  -0.0000000   0.2886751   0.2312180), wk =   0.0078125
        k(   18) = (   0.0000000   0.2886751  -0.3082906), wk =   0.0078125
        k(   19) = (   0.0000000   0.2886751  -0.2312180), wk =   0.0078125
        k(   20) = (   0.0000000   0.2886751  -0.1541453), wk =   0.0078125
        k(   21) = (   0.0000000   0.2886751  -0.0770727), wk =   0.0078125
        k(   22) = (   0.0000000   0.4330127  -0.0000000), wk =   0.0078125
        k(   23) = (   0.0000000   0.4330127   0.0770727), wk =   0.0078125
        k(   24) = (   0.0000000   0.4330127   0.1541453), wk =   0.0078125
        k(   25) = (  -0.0000000   0.4330127   0.2312180), wk =   0.0078125
        k(   26) = (   0.0000000   0.4330127  -0.3082906), wk =   0.0078125
        k(   27) = (   0.0000000   0.4330127  -0.2312180), wk =   0.0078125
        k(   28) = (   0.0000000   0.4330127  -0.1541453), wk =   0.0078125
        k(   29) = (   0.0000000   0.4330127  -0.0770727), wk =   0.0078125
        k(   30) = (  -0.0000000  -0.5773503   0.0000000), wk =   0.0039062
        k(   31) = (  -0.0000000  -0.5773503   0.0770727), wk =   0.0078125
        k(   32) = (  -0.0000000  -0.5773503   0.1541453), wk =   0.0078125
        k(   33) = (  -0.0000000  -0.5773503   0.2312180), wk =   0.0078125
        k(   34) = (   0.0000000  -0.5773502  -0.3082906), wk =   0.0039062
        k(   35) = (   0.1250000   0.0721688  -0.0000000), wk =   0.0078125
        k(   36) = (   0.1250000   0.0721688   0.0770726), wk =   0.0078125
        k(   37) = (   0.1250000   0.0721688   0.1541453), wk =   0.0078125
        k(   38) = (   0.1250000   0.0721688   0.2312180), wk =   0.0078125
        k(   39) = (   0.1250000   0.0721688  -0.3082906), wk =   0.0078125
        k(   40) = (   0.1250000   0.0721688  -0.2312180), wk =   0.0078125
        k(   41) = (   0.1250000   0.0721688  -0.1541453), wk =   0.0078125
        k(   42) = (   0.1250000   0.0721688  -0.0770727), wk =   0.0078125
        k(   43) = (   0.1250000   0.2165063  -0.0000000), wk =   0.0078125
        k(   44) = (   0.1250000   0.2165063   0.0770726), wk =   0.0078125
        k(   45) = (   0.1250000   0.2165063   0.1541453), wk =   0.0078125
        k(   46) = (   0.1250000   0.2165063   0.2312180), wk =   0.0078125
        k(   47) = (   0.1250000   0.2165063  -0.3082906), wk =   0.0078125
        k(   48) = (   0.1250000   0.2165063  -0.2312180), wk =   0.0078125
        k(   49) = (   0.1250000   0.2165063  -0.1541453), wk =   0.0078125
        k(   50) = (   0.1250000   0.2165063  -0.0770727), wk =   0.0078125
        k(   51) = (   0.1250000   0.3608439  -0.0000000), wk =   0.0078125
        k(   52) = (   0.1250000   0.3608439   0.0770726), wk =   0.0078125
        k(   53) = (   0.1250000   0.3608439   0.1541453), wk =   0.0078125
        k(   54) = (   0.1250000   0.3608439   0.2312180), wk =   0.0078125
        k(   55) = (   0.1250000   0.3608439  -0.3082906), wk =   0.0078125
        k(   56) = (   0.1250000   0.3608439  -0.2312180), wk =   0.0078125
        k(   57) = (   0.1250000   0.3608439  -0.1541453), wk =   0.0078125
        k(   58) = (   0.1250000   0.3608439  -0.0770727), wk =   0.0078125
        k(   59) = (   0.1250000   0.5051815  -0.0000000), wk =   0.0078125
        k(   60) = (   0.1250000   0.5051815   0.0770726), wk =   0.0078125
[...]
        k(  246) = (  -0.5000000   0.0000000  -0.1541453), wk =   0.0078125
        k(  247) = (  -0.5000000   0.0000000  -0.0770726), wk =   0.0078125
        k(  248) = (  -0.5000000   0.1443376   0.0000000), wk =   0.0078125
        k(  249) = (  -0.5000000   0.1443376   0.0770727), wk =   0.0078125
        k(  250) = (  -0.5000000   0.1443376   0.1541453), wk =   0.0078125
        k(  251) = (  -0.5000000   0.1443376   0.2312180), wk =   0.0078125
        k(  252) = (  -0.5000000   0.1443376  -0.3082906), wk =   0.0078125
        k(  253) = (  -0.5000000   0.1443376  -0.2312179), wk =   0.0078125
        k(  254) = (  -0.5000000   0.1443376  -0.1541453), wk =   0.0078125
        k(  255) = (  -0.5000000   0.1443376  -0.0770726), wk =   0.0078125
        k(  256) = (  -0.5000000  -0.8660254   0.0000000), wk =   0.0039062
        k(  257) = (  -0.5000000  -0.8660254   0.0770727), wk =   0.0078125
        k(  258) = (  -0.5000000  -0.8660254   0.1541453), wk =   0.0078125
        k(  259) = (  -0.5000000  -0.8660254   0.2312180), wk =   0.0078125
        k(  260) = (  -0.5000000  -0.8660254  -0.3082906), wk =   0.0039062

                       cryst. coord.
        k(    1) = (   0.0000000   0.0000000   0.0000000), wk =   0.0039062
        k(    2) = (  -0.0000000   0.0000000   0.1250000), wk =   0.0078125
        k(    3) = (  -0.0000000   0.0000000   0.2500000), wk =   0.0078125
        k(    4) = (  -0.0000000   0.0000000   0.3750000), wk =   0.0078125
        k(    5) = (   0.0000000  -0.0000000  -0.5000000), wk =   0.0039062
        k(    6) = (  -0.0000000   0.1250000   0.0000000), wk =   0.0078125
        k(    7) = (  -0.0000000   0.1250000   0.1250000), wk =   0.0078125
        k(    8) = (  -0.0000000   0.1250000   0.2500000), wk =   0.0078125
        k(    9) = (  -0.0000000   0.1250000   0.3750000), wk =   0.0078125
        k(   10) = (  -0.0000000   0.1250000  -0.5000000), wk =   0.0078125
        k(   11) = (   0.0000000   0.1250000  -0.3750000), wk =   0.0078125
        k(   12) = (   0.0000000   0.1250000  -0.2500000), wk =   0.0078125
[...]
        k(   21) = (   0.0000000   0.2886465  -0.0770569), wk =   0.0078125
        k(   22) = (   0.0000000   0.4329698   0.0000001), wk =   0.0078125
        k(   23) = (   0.0000000   0.4329698   0.0770570), wk =   0.0078125
        k(   24) = (   0.0000000   0.4329698   0.1541139), wk =   0.0078125
        k(   25) = (   0.0000000   0.4329698   0.2311709), wk =   0.0078125
        k(   26) = (   0.0000000   0.4329697  -0.3082276), wk =   0.0078125
        k(   27) = (   0.0000000   0.4329697  -0.2311707), wk =   0.0078125
        k(   28) = (   0.0000000   0.4329697  -0.1541138), wk =   0.0078125
        k(   29) = (   0.0000000   0.4329697  -0.0770569), wk =   0.0078125
        k(   30) = (  -0.0000000  -0.5772930  -0.0000001), wk =   0.0039062
        k(   31) = (  -0.0000000  -0.5772930   0.0770568), wk =   0.0078125
        k(   32) = (  -0.0000000  -0.5772930   0.1541138), wk =   0.0078125
        k(   33) = (  -0.0000000  -0.5772930   0.2311707), wk =   0.0078125
        k(   34) = (  -0.0000000  -0.5772931  -0.3082278), wk =   0.0039062
        k(   35) = (   0.1249876   0.0721616   0.0000000), wk =   0.0078125
        k(   36) = (   0.1249876   0.0721616   0.0770569), wk =   0.0078125
        k(   37) = (   0.1249876   0.0721616   0.1541139), wk =   0.0078125
        k(   38) = (   0.1249876   0.0721617   0.2311708), wk =   0.0078125
        k(   39) = (   0.1249876   0.0721616  -0.3082277), wk =   0.0078125
        k(   40) = (   0.1249876   0.0721616  -0.2311708), wk =   0.0078125
        k(   41) = (   0.1249876   0.0721616  -0.1541138), wk =   0.0078125
        k(   42) = (   0.1249876   0.0721616  -0.0770569), wk =   0.0078125
        k(   43) = (   0.1249876   0.2164849   0.0000000), wk =   0.0078125
        k(   44) = (   0.1249876   0.2164849   0.0770570), wk =   0.0078125
        k(   45) = (   0.1249876   0.2164849   0.1541139), wk =   0.0078125
        k(   46) = (   0.1249876   0.2164849   0.2311708), wk =   0.0078125
        k(   47) = (   0.1249876   0.2164848  -0.3082277), wk =   0.0078125
        k(   48) = (   0.1249876   0.2164848  -0.2311707), wk =   0.0078125
        k(   49) = (   0.1249876   0.2164848  -0.1541138), wk =   0.0078125
        k(   50) = (   0.1249876   0.2164849  -0.0770569), wk =   0.0078125
        k(   51) = (   0.1249876   0.3608081   0.0000001), wk =   0.0078125
        k(   52) = (   0.1249876   0.3608081   0.0770570), wk =   0.0078125
        k(   53) = (   0.1249876   0.3608082   0.1541139), wk =   0.0078125
        k(   54) = (   0.1249876   0.3608082   0.2311709), wk =   0.0078125
        k(   55) = (   0.1249876   0.3608081  -0.3082277), wk =   0.0078125
        k(   56) = (   0.1249876   0.3608081  -0.2311707), wk =   0.0078125
        k(   57) = (   0.1249876   0.3608081  -0.1541138), wk =   0.0078125
        k(   58) = (   0.1249876   0.3608081  -0.0770569), wk =   0.0078125
        k(   59) = (   0.1249876   0.5051314   0.0000001), wk =   0.0078125
        k(   60) = (   0.1249876   0.5051314   0.0770570), wk =   0.0078125
[...]
        k(  246) = (  -0.4999503  -0.0000000  -0.1541139), wk =   0.0078125
        k(  247) = (  -0.4999503   0.0000000  -0.0770569), wk =   0.0078125
        k(  248) = (  -0.4999503   0.1443233   0.0000000), wk =   0.0078125
        k(  249) = (  -0.4999503   0.1443233   0.0770569), wk =   0.0078125
        k(  250) = (  -0.4999503   0.1443233   0.1541139), wk =   0.0078125
        k(  251) = (  -0.4999503   0.1443233   0.2311708), wk =   0.0078125
        k(  252) = (  -0.4999503   0.1443232  -0.3082277), wk =   0.0078125
        k(  253) = (  -0.4999503   0.1443232  -0.2311708), wk =   0.0078125
        k(  254) = (  -0.4999503   0.1443232  -0.1541138), wk =   0.0078125
        k(  255) = (  -0.4999503   0.1443233  -0.0770569), wk =   0.0078125
        k(  256) = (  -0.4999503  -0.8659395  -0.0000002), wk =   0.0039062
        k(  257) = (  -0.4999503  -0.8659395   0.0770568), wk =   0.0078125
        k(  258) = (  -0.4999503  -0.8659395   0.1541137), wk =   0.0078125
        k(  259) = (  -0.4999503  -0.8659395   0.2311706), wk =   0.0078125
        k(  260) = (  -0.4999503  -0.8659395  -0.3082279), wk =   0.0039062

                       cryst. coord.
        k(    1) = (   0.0000000   0.0000000   0.0000000), wk =   0.0039062
        k(    2) = (  -0.0000000   0.0000000   0.1250000), wk =   0.0078125
        k(    3) = (  -0.0000000   0.0000000   0.2500000), wk =   0.0078125
        k(    4) = (  -0.0000000  -0.0000000   0.3750000), wk =   0.0078125
        k(    5) = (   0.0000000  -0.0000000  -0.5000000), wk =   0.0039062
        k(    6) = (  -0.0000000   0.1250000   0.0000000), wk =   0.0078125
        k(    7) = (  -0.0000000   0.1250000   0.1250000), wk =   0.0078125
        k(    8) = (  -0.0000000   0.1250000   0.2500000), wk =   0.0078125
        k(    9) = (  -0.0000000   0.1250000   0.3750000), wk =   0.0078125
        k(   10) = (  -0.0000000   0.1250000  -0.5000000), wk =   0.0078125
        k(   11) = (   0.0000000   0.1250000  -0.3750000), wk =   0.0078125
        k(   12) = (   0.0000000   0.1250000  -0.2500000), wk =   0.0078125
        k(   13) = (  -0.0000000   0.1250000  -0.1250000), wk =   0.0078125
        k(   14) = (  -0.0000000   0.2500000   0.0000000), wk =   0.0078125
        k(   15) = (  -0.0000000   0.2500000   0.1250000), wk =   0.0078125
        k(   16) = (  -0.0000000   0.2500000   0.2500000), wk =   0.0078125
        k(   17) = (  -0.0000000   0.2500000   0.3750000), wk =   0.0078125
        k(   18) = (   0.0000000   0.2500000  -0.5000000), wk =   0.0078125
        k(   19) = (   0.0000000   0.2500000  -0.3750000), wk =   0.0078125
        k(   20) = (  -0.0000000   0.2500000  -0.2500000), wk =   0.0078125
        k(   21) = (   0.0000000   0.2500000  -0.1250000), wk =   0.0078125
        k(   22) = (  -0.0000000   0.3750000   0.0000000), wk =   0.0078125
        k(   23) = (  -0.0000000   0.3750000   0.1250000), wk =   0.0078125
        k(   24) = (  -0.0000000   0.3750000   0.2500000), wk =   0.0078125
        k(   25) = (  -0.0000000   0.3750000   0.3750000), wk =   0.0078125
        k(   26) = (   0.0000000   0.3750000  -0.5000000), wk =   0.0078125
        k(   27) = (  -0.0000000   0.3750000  -0.3750000), wk =   0.0078125
        k(   28) = (  -0.0000000   0.3750000  -0.2500000), wk =   0.0078125
        k(   29) = (  -0.0000000   0.3750000  -0.1250000), wk =   0.0078125
        k(   30) = (   0.0000000  -0.5000000  -0.0000000), wk =   0.0039062
        k(   31) = (   0.0000000  -0.5000000   0.1250000), wk =   0.0078125
        k(   32) = (  -0.0000000  -0.5000000   0.2500000), wk =   0.0078125
        k(   33) = (  -0.0000000  -0.5000000   0.3750000), wk =   0.0078125
        k(   34) = (   0.0000000  -0.5000000  -0.5000000), wk =   0.0039062
        k(   35) = (   0.1250000   0.0000000  -0.0000000), wk =   0.0078125
        k(   36) = (   0.1250000   0.0000000   0.1250000), wk =   0.0078125
        k(   37) = (   0.1250000   0.0000000   0.2500000), wk =   0.0078125
        k(   38) = (   0.1250000   0.0000000   0.3750000), wk =   0.0078125
        k(   39) = (   0.1250000   0.0000000  -0.5000000), wk =   0.0078125
        k(   40) = (   0.1250000   0.0000000  -0.3750000), wk =   0.0078125
        k(   41) = (   0.1250000   0.0000000  -0.2500000), wk =   0.0078125
        k(   42) = (   0.1250000  -0.0000000  -0.1250000), wk =   0.0078125
        k(   43) = (   0.1250000   0.1250000   0.0000000), wk =   0.0078125
        k(   44) = (   0.1250000   0.1250000   0.1250000), wk =   0.0078125
        k(   45) = (   0.1250000   0.1250000   0.2500000), wk =   0.0078125
        k(   46) = (   0.1250000   0.1250000   0.3750000), wk =   0.0078125
        k(   47) = (   0.1250000   0.1250000  -0.5000000), wk =   0.0078125
        k(   48) = (   0.1250000   0.1250000  -0.3750000), wk =   0.0078125
        k(   49) = (   0.1250000   0.1250000  -0.2500000), wk =   0.0078125
        k(   50) = (   0.1250000   0.1250000  -0.1250000), wk =   0.0078125
        k(   51) = (   0.1250000   0.2500000   0.0000000), wk =   0.0078125
        k(   52) = (   0.1250000   0.2500000   0.1250000), wk =   0.0078125
        k(   53) = (   0.1250000   0.2500000   0.2500000), wk =   0.0078125
        k(   54) = (   0.1250000   0.2500000   0.3750000), wk =   0.0078125
        k(   55) = (   0.1250000   0.2500000  -0.5000000), wk =   0.0078125
        k(   56) = (   0.1250000   0.2500000  -0.3750000), wk =   0.0078125
        k(   57) = (   0.1250000   0.2500000  -0.2500000), wk =   0.0078125
        k(   58) = (   0.1250000   0.2500000  -0.1250000), wk =   0.0078125
        k(   59) = (   0.1250000   0.3750000   0.0000000), wk =   0.0078125
        k(   60) = (   0.1250000   0.3750000   0.1250000), wk =   0.0078125
[...]
        k(  246) = (  -0.5000000   0.2500000  -0.2500000), wk =   0.0078125
        k(  247) = (  -0.5000000   0.2500000  -0.1250000), wk =   0.0078125
        k(  248) = (  -0.5000000   0.3750000   0.0000000), wk =   0.0078125
        k(  249) = (  -0.5000000   0.3750000   0.1250000), wk =   0.0078125
        k(  250) = (  -0.5000000   0.3750000   0.2500000), wk =   0.0078125
        k(  251) = (  -0.5000000   0.3750000   0.3750000), wk =   0.0078125
        k(  252) = (  -0.5000000   0.3750000  -0.5000000), wk =   0.0078125
        k(  253) = (  -0.5000000   0.3750000  -0.3750000), wk =   0.0078125
        k(  254) = (  -0.5000000   0.3750000  -0.2500000), wk =   0.0078125
        k(  255) = (  -0.5000000   0.3750000  -0.1250000), wk =   0.0078125
        k(  256) = (  -0.5000000  -0.5000000  -0.0000000), wk =   0.0039062
        k(  257) = (  -0.5000000  -0.5000000   0.1250000), wk =   0.0078125
        k(  258) = (  -0.5000000  -0.5000000   0.2500000), wk =   0.0078125
        k(  259) = (  -0.5000000  -0.5000000   0.3750000), wk =   0.0078125
        k(  260) = (  -0.5000000  -0.5000000  -0.5000000), wk =   0.0039062

     Check: negative core charge=   -0.000003

     Initial potential from superposition of free atoms

     starting charge   31.39954, renormalised to   32.00000
     Starting wfcs are   18 randomized atomic wfcs

     Self-consistent Calculation

[...]

     total energy              =    -315.17606902 Ry
     Harris-Foulkes estimate   =    -315.17606615 Ry
     estimated scf accuracy    <       0.00001464 Ry

     iteration #  6     ecut=    80.00 Ry     beta= 0.50
     Davidson diagonalization with overlap
     ethr =  4.57E-08,  avg # of iterations =  2.1

     End of self-consistent calculation

[...]

          k = 0.3750 0.0722-0.0771 (  3901 PWs)   bands (ev):

[...]

          k =-0.5000-0.8659-0.3082 (  3900 PWs)   bands (ev):

   -66.9365 -66.9365 -33.9479 -33.9479 -33.9183 -33.9183 -33.9124 -33.9124
   -10.7442 -10.7441   1.4406   1.4406   3.6515   3.6516   3.7508   3.7508

     occupation numbers
     1.0000   1.0000   1.0000   1.0000   1.0000   1.0000   1.0000   1.0000
     1.0000   1.0000   1.0000   1.0000   1.0000   1.0000   1.0000   1.0000

     highest occupied level (ev):     4.2451

!    total energy              =    -315.17607138 Ry
     Harris-Foulkes estimate   =    -315.17607051 Ry
     estimated scf accuracy    <       0.00000089 Ry

     The total energy is the sum of the following terms:

     one-electron contribution =    -214.05595152 Ry
     hartree contribution      =     113.12005202 Ry
     xc contribution           =     -48.04310917 Ry
     ewald contribution        =    -166.19706270 Ry

     convergence has been achieved in   6 iterations

     Forces acting on atoms (cartesian axes, Ry/au):

     atom    1 type  2   force =    -0.00000040    0.00000054    0.01575399
     atom    2 type  2   force =    -0.00000006    0.00000044    0.01575502
     atom    3 type  1   force =     0.00000002   -0.00000011   -0.01575059
     atom    4 type  1   force =     0.00000044   -0.00000086   -0.01575843
     The non-local contrib.  to forces
     atom    1 type  2   force =    -0.00000018   -0.00000080    0.02573633
     atom    2 type  2   force =    -0.00000016    0.00000211    0.02573676
     atom    3 type  1   force =     0.00000026   -0.00000143   -0.02800765
     atom    4 type  1   force =     0.00000101   -0.00000051   -0.02800977
     The ionic contribution  to forces
     atom    1 type  2   force =    -0.00000726    0.00001809    0.13148198
     atom    2 type  2   force =    -0.00000075   -0.00000571    0.13148328
     atom    3 type  1   force =     0.00000118   -0.00000809   -0.13148377
     atom    4 type  1   force =     0.00000683   -0.00000429   -0.13148149
     The local contribution  to forces
     atom    1 type  2   force =     0.00000704   -0.00001672   -0.14106687
     atom    2 type  2   force =     0.00000080    0.00000413   -0.14107166
     atom    3 type  1   force =    -0.00000130    0.00000935    0.14370537
     atom    4 type  1   force =    -0.00000743    0.00000394    0.14371498
     The core correction contribution to forces
     atom    1 type  2   force =     0.00000001    0.00000000   -0.00033037
     atom    2 type  2   force =     0.00000000   -0.00000001   -0.00033038
     atom    3 type  1   force =     0.00000000    0.00000000    0.00000000
     atom    4 type  1   force =     0.00000000    0.00000000    0.00000000
     The Hubbard contrib.    to forces
     atom    1 type  2   force =     0.00000000    0.00000000    0.00000000
     atom    2 type  2   force =     0.00000000    0.00000000    0.00000000
     atom    3 type  1   force =     0.00000000    0.00000000    0.00000000
     atom    4 type  1   force =     0.00000000    0.00000000    0.00000000
     The SCF correction term to forces
     atom    1 type  2   force =     0.00000000    0.00000000    0.00000000
     atom    2 type  2   force =     0.00000000    0.00000000    0.00000000
     atom    3 type  1   force =     0.00000000    0.00000000    0.00000000
     atom    4 type  1   force =     0.00000000    0.00000000    0.00000000

     Total force =     0.000000     Total SCF correction =     0.000000

     Computing stress (Cartesian axis) and pressure

          total   stress  (Ry/bohr**3)                   (kbar)     P=   -3.30
  -0.00002326   0.00000000   0.00000000         -3.42      0.00      0.00
   0.00000000  -0.00002326   0.00000001          0.00     -3.42      0.00
   0.00000000   0.00000001  -0.00002068          0.00      0.00     -3.04

     kinetic stress (kbar)  18788.37      0.00      0.00
                                0.00  18788.37      0.00
                                0.00      0.00  18767.56

     local   stress (kbar)  -7577.79     -0.02     -0.02
                               -0.02  -7577.82      0.05
                               -0.02      0.05 -11751.90

     nonloc. stress (kbar)   5144.05      0.00      0.00
                                0.00   5144.05     -0.00
                                0.00     -0.00   5156.56

     hartree stress (kbar)  16571.18      0.01      0.01
                                0.01  16571.19     -0.02
                                0.01     -0.02  18291.73

     exc-cor stress (kbar)  -6673.90      0.00      0.00
                                0.00  -6673.90     -0.00
                                0.00     -0.00  -6672.17

     corecor stress (kbar)   -246.00     -0.00     -0.00
                               -0.00   -246.00      0.00
                               -0.00      0.00   -245.99

     ewald   stress (kbar) -26009.33      0.01      0.01
                                0.01 -26009.31     -0.03
                                0.01     -0.03 -23548.83

     hubbard stress (kbar)      0.00      0.00      0.00
                                0.00      0.00      0.00
                                0.00      0.00      0.00

     london  stress (kbar)      0.00      0.00      0.00
                                0.00      0.00      0.00
                                0.00      0.00      0.00

     DFT-D3  stress (kbar)      0.00      0.00      0.00
                                0.00      0.00      0.00
                                0.00      0.00      0.00

     XDM     stress (kbar)      0.00      0.00      0.00
                                0.00      0.00      0.00
                                0.00      0.00      0.00

     dft-nl  stress (kbar)      0.00      0.00      0.00
                                0.00      0.00      0.00
                                0.00      0.00      0.00

     TS-vdW  stress (kbar)      0.00      0.00      0.00
                                0.00      0.00      0.00
                                0.00      0.00      0.00

     Writing output data file ZnO.save/

     General routines

     Parallel routines

   This run was terminated on:  16: 0: 8  16Jun2022

   JOB DONE.