     Program PWSCF v.6.4.1 starts on 15Jun2022 at 20:51:19

     K-points division:     npool     =       4
     R & G space division:  proc/nbgrp/npool/nimage =      16
     Waiting for input...
     Reading input from standard input
Warning: card &IONS ignored
Warning: card   UPSCALE           = 100.D0, ignored
Warning: card / ignored
Warning: card &CELL ignored
Warning: card   CELL_DYNAMICS     = 'BFGS' ignored
Warning: card   PRESS_CONV_THR    = 0.5D0 ignored
Warning: card   CELL_DOFREE = 'ALL' ignored
Warning: card / ignored

     Current dimensions of program PWSCF are:
     Max number of different atomic species (ntypx) = 10
     Max number of k-points (npk) =  40000
     Max angular momentum in pseudopotentials (lmaxx) =  3

NOTICE: Bravais lattice has wrong number ( 7) of symmetries - symmetries are disabled

     bravais-lattice index     =            0
     lattice parameter (alat)  =       6.4786  a.u.
     unit-cell volume          =     306.4643 (a.u.)^3
     number of atoms/cell      =            4
     number of atomic types    =            2
     number of electrons       =        32.00
     number of Kohn-Sham states=           16
     kinetic-energy cutoff     =      80.0000  Ry
     charge density cutoff     =     600.0000  Ry
     convergence threshold     =      1.0E-06
     mixing beta               =       0.5000
     number of iterations used =            8  plain     mixing
     Exchange-correlation      = SLA  PW   PSX  PSC ( 1  4 10  8 0 0)

     celldm(1)=   6.478561  celldm(2)=   0.000000  celldm(3)=   0.000000
     celldm(4)=   0.000000  celldm(5)=   0.000000  celldm(6)=   0.000000

     crystal axes: (cart. coord. in units of alat)
               a(1) = (   1.000000   0.000000   0.000000 )
               a(2) = (  -0.500000   0.866026   0.000000 )
               a(3) = (   0.000000   0.000001   1.301408 )

     reciprocal axes: (cart. coord. in units 2 pi/alat)
               b(1) = (  1.000000  0.577350 -0.000000 )
               b(2) = ( -0.000000  1.154700 -0.000001 )
               b(3) = ( -0.000000 -0.000000  0.768398 )

     PseudoPot. # 1 for Mg read from file:
     ./GBRV_PBEsol/mg_pbesol_v1.4.uspp.F.UPF
     MD5 check sum: 4059f37963cf5867752dbf5ab2400678
     Pseudo is Ultrasoft, Zval = 10.0
     Generated by new atomic code, or converted to UPF format
     Using radial grid of  821 points,  7 beta functions with:
                l(1) =   0
                l(2) =   0
                l(3) =   0
                l(4) =   1
                l(5) =   1
                l(6) =   2
                l(7) =   2
     Q(r) pseudized with  8 coefficients,  rinner =    1.200   1.200   1.200
                                                       1.200   1.200

     PseudoPot. # 2 for O  read from file:
     ./GBRV_PBEsol/o_pbesol_v1.2.uspp.F.UPF
     MD5 check sum: 501638753501ef6325af9037351f7734
     Pseudo is Ultrasoft + core correction, Zval =  6.0
     Generated by new atomic code, or converted to UPF format
     Using radial grid of  737 points,  5 beta functions with:
                l(1) =   0
                l(2) =   0
                l(3) =   1
                l(4) =   1
                l(5) =   2
     Q(r) pseudized with  8 coefficients,  rinner =    0.900   0.900   0.900
                                                       0.900   0.900

     atomic species   valence    mass     pseudopotential
        Mg            10.00    24.30500     Mg( 1.00)
        O              6.00    15.99900     O ( 1.00)

     No symmetry found

                                    s                        frac. trans.

      isym =  1     identity

 cryst.   s( 1) = (     1          0          0      )
                  (     0          1          0      )
                  (     0          0          1      )

 cart.    s( 1) = (  1.0000000 -0.0000000 -0.0000000 )
                  ( -0.0000000  1.0000000  0.0000000 )
                  (  0.0000000 -0.0000000  1.0000000 )

   Cartesian axes

     site n.     atom                  positions (alat units)
         1           O   tau(   1) = (   0.5000002   0.2886755   0.0095601  )
         2           O   tau(   2) = (   0.0000002   0.5773498   0.6602641  )
         3           Mg  tau(   3) = (   0.5000001   0.2886751   0.5939030  )
         4           Mg  tau(   4) = (  -0.0000000   0.5773518   1.2446070  )

   Crystallographic axes

     site n.     atom                  positions (cryst. coord.)
         1           O   tau(   1) = (  0.6666670  0.3333337  0.0073459  )
         2           O   tau(   2) = (  0.3333329  0.6666657  0.5073458  )
         3           Mg  tau(   3) = (  0.6666664  0.3333329  0.4563540  )
         4           Mg  tau(   4) = (  0.3333336  0.6666677  0.9563539  )

     number of k points=   260
                       cart. coord. in units 2pi/alat
        k(    1) = (   0.0000000   0.0000000   0.0000000), wk =   0.0039062
        k(    2) = (  -0.0000000  -0.0000000   0.0960498), wk =   0.0078125
        k(    3) = (  -0.0000000  -0.0000001   0.1920996), wk =   0.0078125
        k(    4) = (  -0.0000000  -0.0000001   0.2881494), wk =   0.0078125
        k(    5) = (   0.0000000   0.0000001  -0.3841992), wk =   0.0039062
        k(    6) = (  -0.0000000   0.1443375  -0.0000001), wk =   0.0078125
        k(    7) = (  -0.0000000   0.1443375   0.0960497), wk =   0.0078125
        k(    8) = (  -0.0000000   0.1443375   0.1920995), wk =   0.0078125
        k(    9) = (  -0.0000000   0.1443375   0.2881494), wk =   0.0078125
        k(   10) = (   0.0000000   0.1443376  -0.3841993), wk =   0.0078125
        k(   11) = (   0.0000000   0.1443376  -0.2881495), wk =   0.0078125
        k(   12) = (   0.0000000   0.1443376  -0.1920997), wk =   0.0078125
        k(   13) = (  -0.0000000   0.1443376  -0.0960499), wk =   0.0078125
        k(   14) = (  -0.0000000   0.2886751  -0.0000001), wk =   0.0078125
        k(   15) = (  -0.0000000   0.2886751   0.0960497), wk =   0.0078125
        k(   16) = (  -0.0000000   0.2886750   0.1920995), wk =   0.0078125
        k(   17) = (  -0.0000000   0.2886750   0.2881493), wk =   0.0078125
        k(   18) = (   0.0000000   0.2886752  -0.3841993), wk =   0.0078125
        k(   19) = (  -0.0000000   0.2886752  -0.2881495), wk =   0.0078125
        k(   20) = (  -0.0000000   0.2886751  -0.1920997), wk =   0.0078125
        k(   21) = (  -0.0000000   0.2886751  -0.0960499), wk =   0.0078125
        k(   22) = (  -0.0000000   0.4330126  -0.0000002), wk =   0.0078125
        k(   23) = (  -0.0000000   0.4330126   0.0960496), wk =   0.0078125
        k(   24) = (  -0.0000000   0.4330126   0.1920994), wk =   0.0078125
        k(   25) = (  -0.0000001   0.4330126   0.2881492), wk =   0.0078125
        k(   26) = (  -0.0000000   0.4330127  -0.3841994), wk =   0.0078125
        k(   27) = (  -0.0000000   0.4330127  -0.2881496), wk =   0.0078125
        k(   28) = (  -0.0000000   0.4330127  -0.1920998), wk =   0.0078125
        k(   29) = (  -0.0000000   0.4330127  -0.0960500), wk =   0.0078125
        k(   30) = (   0.0000000  -0.5773502   0.0000003), wk =   0.0039062
        k(   31) = (   0.0000000  -0.5773502   0.0960501), wk =   0.0078125
        k(   32) = (   0.0000000  -0.5773502   0.1920999), wk =   0.0078125
        k(   33) = (   0.0000000  -0.5773503   0.2881497), wk =   0.0078125
        k(   34) = (   0.0000001  -0.5773501  -0.3841990), wk =   0.0039062
        k(   35) = (   0.1250000   0.0721688  -0.0000000), wk =   0.0078125
        k(   36) = (   0.1250000   0.0721687   0.0960498), wk =   0.0078125
        k(   37) = (   0.1250000   0.0721687   0.1920996), wk =   0.0078125
        k(   38) = (   0.1250000   0.0721687   0.2881494), wk =   0.0078125
        k(   39) = (   0.1250000   0.0721689  -0.3841993), wk =   0.0078125
        k(   40) = (   0.1250000   0.0721688  -0.2881495), wk =   0.0078125
        k(   41) = (   0.1250000   0.0721688  -0.1920997), wk =   0.0078125
        k(   42) = (   0.1250000   0.0721688  -0.0960498), wk =   0.0078125
        k(   43) = (   0.1250000   0.2165063  -0.0000001), wk =   0.0078125
        k(   44) = (   0.1250000   0.2165063   0.0960497), wk =   0.0078125
        k(   45) = (   0.1250000   0.2165063   0.1920995), wk =   0.0078125
        k(   46) = (   0.1250000   0.2165062   0.2881493), wk =   0.0078125
        k(   47) = (   0.1250000   0.2165064  -0.3841993), wk =   0.0078125
        k(   48) = (   0.1250000   0.2165064  -0.2881495), wk =   0.0078125
        k(   49) = (   0.1250000   0.2165064  -0.1920997), wk =   0.0078125
        k(   50) = (   0.1250000   0.2165063  -0.0960499), wk =   0.0078125
        k(   51) = (   0.1250000   0.3608439  -0.0000002), wk =   0.0078125
        k(   52) = (   0.1250000   0.3608438   0.0960496), wk =   0.0078125
        k(   53) = (   0.1250000   0.3608438   0.1920994), wk =   0.0078125
        k(   54) = (   0.1250000   0.3608438   0.2881492), wk =   0.0078125
        k(   55) = (   0.1250000   0.3608440  -0.3841994), wk =   0.0078125
        k(   56) = (   0.1250000   0.3608439  -0.2881496), wk =   0.0078125
        k(   57) = (   0.1250000   0.3608439  -0.1920998), wk =   0.0078125
        k(   58) = (   0.1250000   0.3608439  -0.0960500), wk =   0.0078125
        k(   59) = (   0.1250000   0.5051814  -0.0000002), wk =   0.0078125
        k(   60) = (   0.1250000   0.5051814   0.0960496), wk =   0.0078125
[...]
        k(  246) = (  -0.5000000   0.0000001  -0.1920996), wk =   0.0078125
        k(  247) = (  -0.5000000   0.0000001  -0.0960498), wk =   0.0078125
        k(  248) = (  -0.5000000   0.1443376  -0.0000000), wk =   0.0078125
        k(  249) = (  -0.5000000   0.1443376   0.0960498), wk =   0.0078125
        k(  250) = (  -0.5000000   0.1443375   0.1920996), wk =   0.0078125
        k(  251) = (  -0.5000000   0.1443375   0.2881494), wk =   0.0078125
        k(  252) = (  -0.5000000   0.1443377  -0.3841992), wk =   0.0078125
        k(  253) = (  -0.5000000   0.1443377  -0.2881494), wk =   0.0078125
        k(  254) = (  -0.5000000   0.1443376  -0.1920996), wk =   0.0078125
        k(  255) = (  -0.5000000   0.1443376  -0.0960498), wk =   0.0078125
        k(  256) = (  -0.4999999  -0.8660252   0.0000004), wk =   0.0039062
        k(  257) = (  -0.4999999  -0.8660253   0.0960502), wk =   0.0078125
        k(  258) = (  -0.4999999  -0.8660253   0.1921000), wk =   0.0078125
        k(  259) = (  -0.5000000  -0.8660253   0.2881498), wk =   0.0078125
        k(  260) = (  -0.4999999  -0.8660251  -0.3841988), wk =   0.0039062

                       cryst. coord.
        k(    1) = (   0.0000000   0.0000000   0.0000000), wk =   0.0039062
        k(    2) = (   0.0000000  -0.0000000   0.1250000), wk =   0.0078125
        k(    3) = (   0.0000000  -0.0000000   0.2500000), wk =   0.0078125
        k(    4) = (   0.0000000   0.0000000   0.3750000), wk =   0.0078125
        k(    5) = (  -0.0000000   0.0000000  -0.5000000), wk =   0.0039062
        k(    6) = (  -0.0000000   0.1250000  -0.0000000), wk =   0.0078125
        k(    7) = (  -0.0000000   0.1250000   0.1250000), wk =   0.0078125
        k(    8) = (  -0.0000000   0.1250000   0.2500000), wk =   0.0078125
        k(    9) = (   0.0000000   0.1250000   0.3750000), wk =   0.0078125
        k(   10) = (  -0.0000000   0.1250000  -0.5000000), wk =   0.0078125
        k(   11) = (  -0.0000000   0.1250000  -0.3750000), wk =   0.0078125
        k(   12) = (  -0.0000000   0.1250000  -0.2500000), wk =   0.0078125
        k(   13) = (  -0.0000000   0.1250000  -0.1250000), wk =   0.0078125
        k(   14) = (  -0.0000000   0.2500000  -0.0000000), wk =   0.0078125
        k(   15) = (  -0.0000000   0.2500000   0.1250000), wk =   0.0078125
        k(   16) = (  -0.0000000   0.2500000   0.2500000), wk =   0.0078125
        k(   17) = (  -0.0000000   0.2500000   0.3750000), wk =   0.0078125
        k(   18) = (  -0.0000000   0.2500000  -0.5000000), wk =   0.0078125
        k(   19) = (  -0.0000000   0.2500000  -0.3750000), wk =   0.0078125
        k(   20) = (  -0.0000000   0.2500000  -0.2500000), wk =   0.0078125
        k(   21) = (  -0.0000000   0.2500000  -0.1250000), wk =   0.0078125
        k(   22) = (  -0.0000000   0.3750000  -0.0000000), wk =   0.0078125
        k(   23) = (  -0.0000000   0.3750000   0.1250000), wk =   0.0078125
        k(   24) = (  -0.0000000   0.3750000   0.2500000), wk =   0.0078125
        k(   25) = (  -0.0000000   0.3750000   0.3750000), wk =   0.0078125
        k(   26) = (  -0.0000000   0.3750000  -0.5000000), wk =   0.0078125
        k(   27) = (  -0.0000000   0.3750000  -0.3750000), wk =   0.0078125
        k(   28) = (  -0.0000000   0.3750000  -0.2500000), wk =   0.0078125
        k(   29) = (  -0.0000000   0.3750000  -0.1250000), wk =   0.0078125
        k(   30) = (   0.0000000  -0.5000000   0.0000000), wk =   0.0039062
        k(   31) = (   0.0000000  -0.5000000   0.1250000), wk =   0.0078125
        k(   32) = (   0.0000000  -0.5000000   0.2500000), wk =   0.0078125
        k(   33) = (   0.0000000  -0.5000000   0.3750000), wk =   0.0078125
        k(   34) = (   0.0000000  -0.5000000  -0.5000000), wk =   0.0039062
        k(   35) = (   0.1250000  -0.0000000  -0.0000000), wk =   0.0078125
        k(   36) = (   0.1250000  -0.0000000   0.1250000), wk =   0.0078125
        k(   37) = (   0.1250000  -0.0000000   0.2500000), wk =   0.0078125
        k(   38) = (   0.1250000  -0.0000000   0.3750000), wk =   0.0078125
        k(   39) = (   0.1250000  -0.0000000  -0.5000000), wk =   0.0078125
        k(   40) = (   0.1250000  -0.0000000  -0.3750000), wk =   0.0078125
        k(   41) = (   0.1250000  -0.0000000  -0.2500000), wk =   0.0078125
        k(   42) = (   0.1250000  -0.0000000  -0.1250000), wk =   0.0078125
        k(   43) = (   0.1250000   0.1250000  -0.0000000), wk =   0.0078125
        k(   44) = (   0.1250000   0.1250000   0.1250000), wk =   0.0078125
        k(   45) = (   0.1250000   0.1250000   0.2500000), wk =   0.0078125
        k(   46) = (   0.1250000   0.1250000   0.3750000), wk =   0.0078125
        k(   47) = (   0.1250000   0.1250000  -0.5000000), wk =   0.0078125
        k(   48) = (   0.1250000   0.1250000  -0.3750000), wk =   0.0078125
        k(   49) = (   0.1250000   0.1250000  -0.2500000), wk =   0.0078125
        k(   50) = (   0.1250000   0.1250000  -0.1250000), wk =   0.0078125
        k(   51) = (   0.1250000   0.2500000   0.0000000), wk =   0.0078125
        k(   52) = (   0.1250000   0.2500000   0.1250000), wk =   0.0078125
        k(   53) = (   0.1250000   0.2500000   0.2500000), wk =   0.0078125
        k(   54) = (   0.1250000   0.2500000   0.3750000), wk =   0.0078125
        k(   55) = (   0.1250000   0.2500000  -0.5000000), wk =   0.0078125
        k(   56) = (   0.1250000   0.2500000  -0.3750000), wk =   0.0078125
        k(   57) = (   0.1250000   0.2500000  -0.2500000), wk =   0.0078125
        k(   58) = (   0.1250000   0.2500000  -0.1250000), wk =   0.0078125
        k(   59) = (   0.1250000   0.3750000   0.0000000), wk =   0.0078125
        k(   60) = (   0.1250000   0.3750000   0.1250000), wk =   0.0078125
[...]
        k(  246) = (  -0.5000000   0.2500000  -0.2500000), wk =   0.0078125
        k(  247) = (  -0.5000000   0.2500000  -0.1250000), wk =   0.0078125
        k(  248) = (  -0.5000000   0.3750000   0.0000000), wk =   0.0078125
        k(  249) = (  -0.5000000   0.3750000   0.1250000), wk =   0.0078125
        k(  250) = (  -0.5000000   0.3750000   0.2500000), wk =   0.0078125
        k(  251) = (  -0.5000000   0.3750000   0.3750000), wk =   0.0078125
        k(  252) = (  -0.5000000   0.3750000  -0.5000000), wk =   0.0078125
        k(  253) = (  -0.5000000   0.3750000  -0.3750000), wk =   0.0078125
        k(  254) = (  -0.5000000   0.3750000  -0.2500000), wk =   0.0078125
        k(  255) = (  -0.5000000   0.3750000  -0.1250000), wk =   0.0078125
        k(  256) = (  -0.5000000  -0.5000000   0.0000000), wk =   0.0039062
        k(  257) = (  -0.5000000  -0.5000000   0.1250000), wk =   0.0078125
        k(  258) = (  -0.5000000  -0.5000000   0.2500000), wk =   0.0078125
        k(  259) = (  -0.5000000  -0.5000000   0.3750000), wk =   0.0078125
        k(  260) = (  -0.5000000  -0.5000000  -0.5000000), wk =   0.0039062

     Check: negative core charge=   -0.000003

     Initial potential from superposition of free atoms

     starting charge   31.39954, renormalised to   32.00000
     Starting wfcs are   18 randomized atomic wfcs

     Self-consistent Calculation

     iteration #  1     ecut=    80.00 Ry     beta= 0.50
     Davidson diagonalization with overlap
     ethr =  1.00E-02,  avg # of iterations =  2.0

     total energy              =    -314.91285389 Ry
     Harris-Foulkes estimate   =    -315.45913958 Ry
     estimated scf accuracy    <       0.86142385 Ry

[...]

     total energy              =    -315.18313205 Ry
     Harris-Foulkes estimate   =    -315.18313172 Ry
     estimated scf accuracy    <       0.00000194 Ry

     iteration #  7     ecut=    80.00 Ry     beta= 0.50
     Davidson diagonalization with overlap
     ethr =  6.07E-09,  avg # of iterations =  2.0

     End of self-consistent calculation

          k = 0.0000 0.0000 0.0000 (  3655 PWs)   bands (ev):

   -66.4134 -66.4043 -33.4371 -33.3889 -33.3889 -33.3711 -33.3701 -33.3701
   -11.1898  -9.9957   1.8360   3.9474   3.9474   4.6323   4.6323   5.4730

     occupation numbers
     1.0000   1.0000   1.0000   1.0000   1.0000   1.0000   1.0000   1.0000
     1.0000   1.0000   1.0000   1.0000   1.0000   1.0000   1.0000   1.0000

          k =-0.0000-0.0000 0.0960 (  3672 PWs)   bands (ev):

[...]

          k = 0.3750 0.0722-0.0960 (  3706 PWs)   bands (ev):

[...]

          k =-0.5000-0.8660-0.3842 (  3712 PWs)   bands (ev):

   -66.4079 -66.4079 -33.4284 -33.4284 -33.3841 -33.3841 -33.3746 -33.3746
   -10.2570 -10.2568   1.7284   1.7285   4.0129   4.0131   4.6084   4.6085

     occupation numbers
     1.0000   1.0000   1.0000   1.0000   1.0000   1.0000   1.0000   1.0000
     1.0000   1.0000   1.0000   1.0000   1.0000   1.0000   1.0000   1.0000

     highest occupied level (ev):     5.4730

!    total energy              =    -315.18313246 Ry
     Harris-Foulkes estimate   =    -315.18313233 Ry
     estimated scf accuracy    <       0.00000012 Ry

     The total energy is the sum of the following terms:

     one-electron contribution =    -208.65737762 Ry
     hartree contribution      =     111.05829518 Ry
     xc contribution           =     -48.08308954 Ry
     ewald contribution        =    -169.50096048 Ry

     convergence has been achieved in   7 iterations

     Forces acting on atoms (cartesian axes, Ry/au):

     atom    1 type  2   force =    -0.00000013    0.00000012   -0.01491294
     atom    2 type  2   force =     0.00000064    0.00000086   -0.01491340
     atom    3 type  1   force =     0.00000016   -0.00000041    0.01491029
     atom    4 type  1   force =    -0.00000068   -0.00000057    0.01491605
     The non-local contrib.  to forces
     atom    1 type  2   force =    -0.00000030   -0.00000178    0.05811674
     atom    2 type  2   force =     0.00000004    0.00000304    0.05812123
     atom    3 type  1   force =     0.00000021   -0.00000239    0.16598736
     atom    4 type  1   force =     0.00000116   -0.00000006    0.16598593
     The ionic contribution  to forces
     atom    1 type  2   force =    -0.00000746    0.00001635   -1.09463714
     atom    2 type  2   force =    -0.00000319    0.00000144   -1.09463854
     atom    3 type  1   force =     0.00000368   -0.00001558    1.09463860
     atom    4 type  1   force =     0.00000697   -0.00000221    1.09463709
     The local contribution  to forces
     atom    1 type  2   force =     0.00000732   -0.00001445    1.02165693
     atom    2 type  2   force =     0.00000355   -0.00000385    1.02165273
     atom    3 type  1   force =    -0.00000458    0.00001748   -1.24583081
     atom    4 type  1   force =    -0.00000734    0.00000190   -1.24584531
     The core correction contribution to forces
     atom    1 type  2   force =     0.00000001    0.00000000    0.00009831
     atom    2 type  2   force =     0.00000001   -0.00000003    0.00009826
     atom    3 type  1   force =     0.00000000    0.00000000    0.00000000
     atom    4 type  1   force =     0.00000000    0.00000000    0.00000000
     The Hubbard contrib.    to forces
     atom    1 type  2   force =     0.00000000    0.00000000    0.00000000
     atom    2 type  2   force =     0.00000000    0.00000000    0.00000000
     atom    3 type  1   force =     0.00000000    0.00000000    0.00000000
     atom    4 type  1   force =     0.00000000    0.00000000    0.00000000
     The SCF correction term to forces
     atom    1 type  2   force =     0.00000000    0.00000000    0.00000000
     atom    2 type  2   force =     0.00000000    0.00000000    0.00000000
     atom    3 type  1   force =     0.00000000    0.00000000    0.00000000
     atom    4 type  1   force =     0.00000000    0.00000000    0.00000000

     Total force =     0.000000     Total SCF correction =     0.000000

     Computing stress (Cartesian axis) and pressure

          total   stress  (Ry/bohr**3)                   (kbar)     P=   -1.43
  -0.00000812  -0.00000000  -0.00000000         -1.20     -0.00     -0.00
  -0.00000000  -0.00000813  -0.00000000         -0.00     -1.20     -0.00
  -0.00000000  -0.00000000  -0.00001290         -0.00     -0.00     -1.90

     kinetic stress (kbar)  19835.33     -0.00     -0.00
                               -0.00  19835.33     -0.00
                               -0.00     -0.00  19882.39

     local   stress (kbar)  -5393.12     -0.02      0.01
                               -0.02  -5393.15     -0.04
                                0.01     -0.04 -15066.02

     nonloc. stress (kbar)   5435.65      0.00      0.00
                                0.00   5435.65      0.00
                                0.00      0.00   5406.91

     hartree stress (kbar)  16317.07      0.01     -0.00
                                0.01  16317.08      0.01
                               -0.00      0.01  20674.62

     exc-cor stress (kbar)  -7050.30      0.00     -0.00
                                0.00  -7050.30      0.00
                               -0.00      0.00  -7050.54

     corecor stress (kbar)   -259.71     -0.00      0.00
                               -0.00   -259.71      0.00
                                0.00      0.00   -259.81

     ewald   stress (kbar) -28886.12      0.01     -0.00
                                0.01 -28886.10      0.02
                               -0.00      0.02 -23589.44

     hubbard stress (kbar)      0.00      0.00      0.00
                                0.00      0.00      0.00
                                0.00      0.00      0.00

     london  stress (kbar)      0.00      0.00      0.00
                                0.00      0.00      0.00
                                0.00      0.00      0.00

     DFT-D3  stress (kbar)      0.00      0.00      0.00
                                0.00      0.00      0.00
                                0.00      0.00      0.00

     XDM     stress (kbar)      0.00      0.00      0.00
                                0.00      0.00      0.00
                                0.00      0.00      0.00

     dft-nl  stress (kbar)      0.00      0.00      0.00
                                0.00      0.00      0.00
                                0.00      0.00      0.00

     TS-vdW  stress (kbar)      0.00      0.00      0.00
                                0.00      0.00      0.00
                                0.00      0.00      0.00

     Writing output data file ZnO.save/

     General routines

     Parallel routines

   This run was terminated on:  20:51:26  15Jun2022

   JOB DONE.