     Program PWSCF v.6.4.1 starts on 15Jul2022 at  1:57: 3

     K-points division:     npool     =       8
     R & G space division:  proc/nbgrp/npool/nimage =      16
     Waiting for input...
     Reading input from standard input
Warning: card &IONS ignored
Warning: card   UPSCALE           = 100.D0, ignored
Warning: card / ignored
Warning: card &CELL ignored
Warning: card   CELL_DYNAMICS     = 'BFGS' ignored
Warning: card   PRESS_CONV_THR    = 0.5D0 ignored
Warning: card   CELL_DOFREE = 'ALL' ignored
Warning: card / ignored

     Current dimensions of program PWSCF are:
     Max number of different atomic species (ntypx) = 10
     Max number of k-points (npk) =  40000
     Max angular momentum in pseudopotentials (lmaxx) =  3

     bravais-lattice index     =            0
     lattice parameter (alat)  =      18.4447  a.u.
     unit-cell volume          =    5789.0670 (a.u.)^3
     number of atoms/cell      =           72
     number of atomic types    =            3
     number of electrons       =       776.00
     number of Kohn-Sham states=          466
     kinetic-energy cutoff     =      60.0000  Ry
     charge density cutoff     =     500.0000  Ry
     convergence threshold     =      1.0E-08
     mixing beta               =       0.5000
     number of iterations used =            8  plain     mixing
     Exchange-correlation      = SLA  PW   PSX  PSC ( 1  4 10  8 0 0)

     celldm(1)=  18.444651  celldm(2)=   0.000000  celldm(3)=   0.000000
     celldm(4)=   0.000000  celldm(5)=   0.000000  celldm(6)=   0.000000

     crystal axes: (cart. coord. in units of alat)
               a(1) = (   1.000000  -0.000668   0.000654 )
               a(2) = (  -0.500577   0.867025  -0.000259 )
               a(3) = (   0.000697   0.000083   1.064471 )

     reciprocal axes: (cart. coord. in units 2 pi/alat)
               b(1) = (  1.000387  0.577573 -0.000700 )
               b(2) = (  0.000771  1.153815 -0.000090 )
               b(3) = ( -0.000614 -0.000074  0.939434 )

     PseudoPot. # 1 for Zn read from file:
     ./GBRV_PBEsol/zn_pbesol_v1.uspp.F.UPF
     MD5 check sum: 7d8615e52efe7c1e2b1899de8658bae2
     Pseudo is Ultrasoft, Zval = 20.0
     Generated by new atomic code, or converted to UPF format
     Using radial grid of  943 points,  6 beta functions with:
                l(1) =   0
                l(2) =   0
                l(3) =   1
                l(4) =   1
                l(5) =   2
                l(6) =   2
     Q(r) pseudized with  8 coefficients,  rinner =    1.100   1.100   1.100
                                                       1.100   1.100

     PseudoPot. # 2 for O  read from file:
     ./GBRV_PBEsol/o_pbesol_v1.2.uspp.F.UPF
     MD5 check sum: 501638753501ef6325af9037351f7734
     Pseudo is Ultrasoft + core correction, Zval =  6.0
     Generated by new atomic code, or converted to UPF format
     Using radial grid of  737 points,  5 beta functions with:
                l(1) =   0
                l(2) =   0
                l(3) =   1
                l(4) =   1
                l(5) =   2
     Q(r) pseudized with  8 coefficients,  rinner =    0.900   0.900   0.900
                                                       0.900   0.900

     PseudoPot. # 3 for Mg read from file:
     ./GBRV_PBEsol/mg_pbesol_v1.4.uspp.F.UPF
     MD5 check sum: 4059f37963cf5867752dbf5ab2400678
     Pseudo is Ultrasoft, Zval = 10.0
     Generated by new atomic code, or converted to UPF format
     Using radial grid of  821 points,  7 beta functions with:
                l(1) =   0
                l(2) =   0
                l(3) =   0
                l(4) =   1
                l(5) =   1
                l(6) =   2
                l(7) =   2
     Q(r) pseudized with  8 coefficients,  rinner =    1.200   1.200   1.200
                                                       1.200   1.200

     atomic species   valence    mass     pseudopotential
        Zn            20.00    65.38000     Zn( 1.00)
        O              6.00    15.99900     O ( 1.00)
        Mg            10.00    24.30500     Mg( 1.00)

     No symmetry found

                                    s                        frac. trans.

      isym =  1     identity

 cryst.   s( 1) = (     1          0          0      )
                  (     0          1          0      )
                  (     0          0          1      )

 cart.    s( 1) = (  1.0000000 -0.0000000 -0.0000000 )
                  (  0.0000000  1.0000000 -0.0000000 )
                  ( -0.0000000  0.0000000  1.0000000 )

   Cartesian axes

     site n.     atom                  positions (alat units)
         1           Zn  tau(   1) = (   0.1647479   0.0954963   0.2085511  )
         2           Zn  tau(   2) = (   0.3321197   0.3844125   0.2060951  )
         3           Zn  tau(   3) = (   0.6690176   0.3847929   0.2058923  )
         4           Zn  tau(   4) = (   0.1677834   0.0960696   0.7405757  )
         5           Zn  tau(   5) = (   0.5011639   0.0961245   0.7380051  )
         6           Zn  tau(   6) = (   0.8320118   0.0962813   0.7362300  )
         7           Zn  tau(   7) = (  -0.0002203   0.3866914   0.7375309  )
         8           Zn  tau(   8) = (   0.6662707   0.3851745   0.7385494  )
         9           Zn  tau(   9) = (   0.1654240   0.6740292   0.7383025  )
        10           Zn  tau(  10) = (   0.5001903   0.6718868   0.7361787  )
        11           Zn  tau(  11) = (   0.3321118   0.1937678   0.4737127  )
        12           Zn  tau(  12) = (   0.6670801   0.1931068   0.4715051  )
        13           Zn  tau(  13) = (   0.1669814   0.4804715   0.4722229  )
        14           Zn  tau(  14) = (   0.4994429   0.4798945   0.4709077  )
        15           Zn  tau(  15) = (  -0.0022644   0.7689957   0.4709066  )
        16           Zn  tau(  16) = (  -0.0005711   0.1924310   1.0046010  )
        17           Zn  tau(  17) = (   0.3338696   0.1903217   1.0060387  )
        18           Zn  tau(  18) = (   0.1655852   0.4817903   1.0055937  )
        19           Zn  tau(  19) = (  -0.3345052   0.7696881   1.0042903  )
        20           Zn  tau(  20) = (   0.0006353   0.7715771   1.0061262  )
        21           Mg  tau(  21) = (   0.4982431   0.0972160   0.2098375  )
        22           Mg  tau(  22) = (   0.8354746   0.0954923   0.2084534  )
        23           Mg  tau(  23) = (   0.0020064   0.3827236   0.2073683  )
        24           Mg  tau(  24) = (  -0.1676163   0.6756800   0.2054846  )
        25           Mg  tau(  25) = (   0.1669151   0.6742817   0.2081849  )
        26           Mg  tau(  26) = (   0.4998603   0.6753368   0.2084361  )
        27           Mg  tau(  27) = (   0.3337097   0.3851514   0.7403073  )
        28           Mg  tau(  28) = (  -0.1652269   0.6751143   0.7389189  )
        29           Mg  tau(  29) = (   0.0022537   0.1933264   0.4757788  )
        30           Mg  tau(  30) = (  -0.1667173   0.4822435   0.4719653  )
        31           Mg  tau(  31) = (  -0.3316146   0.7718072   0.4741564  )
        32           Mg  tau(  32) = (   0.3312947   0.7692458   0.4740204  )
        33           Mg  tau(  33) = (   0.6674713   0.1920635   1.0061910  )
        34           Mg  tau(  34) = (  -0.1649024   0.4806158   1.0038330  )
        35           Mg  tau(  35) = (   0.5021431   0.4819983   1.0073377  )
        36           Mg  tau(  36) = (   0.3349101   0.7708439   1.0027184  )
        37           O   tau(  37) = (   0.1654948   0.0953183   0.0038548  )
        38           O   tau(  38) = (   0.5004197   0.0964949   0.0065291  )
        39           O   tau(  39) = (   0.8325406   0.0948075   0.0048777  )
        40           O   tau(  40) = (  -0.0005083   0.3844672   0.0046015  )
        41           O   tau(  41) = (   0.3332863   0.3847816   0.0014414  )
        42           O   tau(  42) = (   0.6677094   0.3845994   0.0018122  )
        43           O   tau(  43) = (  -0.1672928   0.6732395   0.0018692  )
        44           O   tau(  44) = (   0.1675626   0.6747968   0.0044206  )
        45           O   tau(  45) = (   0.4984015   0.6737236   0.0053264  )
        46           O   tau(  46) = (   0.1671078   0.0960561   0.5370620  )
        47           O   tau(  47) = (   0.5000733   0.0958909   0.5337075  )
        48           O   tau(  48) = (   0.8340675   0.0956546   0.5330240  )
        49           O   tau(  49) = (  -0.0007244   0.3856444   0.5336994  )
        50           O   tau(  50) = (   0.3334430   0.3855843   0.5375773  )
        51           O   tau(  51) = (   0.6666151   0.3850819   0.5349355  )
        52           O   tau(  52) = (  -0.1676946   0.6733724   0.5361371  )
        53           O   tau(  53) = (   0.1649151   0.6734183   0.5343582  )
        54           O   tau(  54) = (   0.5000389   0.6739346   0.5322153  )
        55           O   tau(  55) = (  -0.0001879   0.1925350   0.2728546  )
        56           O   tau(  56) = (   0.3316378   0.1928661   0.2702571  )
        57           O   tau(  57) = (   0.6673295   0.1917660   0.2673337  )
        58           O   tau(  58) = (  -0.1642495   0.4826852   0.2683160  )
        59           O   tau(  59) = (   0.1666586   0.4818205   0.2687558  )
        60           O   tau(  60) = (   0.5004489   0.4809851   0.2667267  )
        61           O   tau(  61) = (  -0.3332407   0.7700165   0.2712959  )
        62           O   tau(  62) = (  -0.0005939   0.7707316   0.2674394  )
        63           O   tau(  63) = (   0.3329674   0.7703709   0.2705018  )
        64           O   tau(  64) = (  -0.0003897   0.1930938   0.8000735  )
        65           O   tau(  65) = (   0.3345149   0.1924597   0.8021672  )
        66           O   tau(  66) = (   0.6669736   0.1925779   0.8028453  )
        67           O   tau(  67) = (  -0.1665936   0.4826752   0.8007581  )
        68           O   tau(  68) = (   0.1667574   0.4816381   0.8016197  )
        69           O   tau(  69) = (   0.4998342   0.4811111   0.8039179  )
        70           O   tau(  70) = (  -0.3334820   0.7697313   0.7998962  )
        71           O   tau(  71) = (   0.0004441   0.7714212   0.8021217  )
        72           O   tau(  72) = (   0.3336060   0.7701556   0.7992609  )

   Crystallographic axes

     site n.     atom                  positions (cryst. coord.)
         1           Zn  tau(   1) = (  0.2198218  0.1102933  0.1958119  )
         2           Zn  tau(   2) = (  0.5541304  0.4437783  0.1933804  )
         3           Zn  tau(   3) = (  0.8913784  0.4444770  0.1929829  )
         4           Zn  tau(   4) = (  0.2228172  0.1109093  0.6956122  )
         5           Zn  tau(   5) = (  0.5563602  0.1112299  0.6929925  )
         6           Zn  tau(   6) = (  0.8874280  0.1116661  0.6911218  )
         7           Zn  tau(   7) = (  0.2226061  0.4461037  0.6928334  )
         8           Zn  tau(   8) = (  0.8884781  0.4448673  0.6933810  )
         9           Zn  tau(   9) = (  0.5542726  0.7777659  0.6934353  )
        10           Zn  tau(  10) = (  0.8879326  0.7755523  0.6912347  )
        11           Zn  tau(  11) = (  0.4438239  0.2237856  0.4448037  )
[...]
     1.5064   1.5241   1.5492   1.5597   1.5832   1.6024   1.6282   1.6378
     1.7003   1.7136   1.7336   1.7437   1.7533   1.7718   1.7816   1.7993
     1.8163   1.8369   1.8518   1.8789   1.8886   1.9070   1.9180   1.9325
     1.9369   1.9520   1.9570   1.9707   1.9787   2.0092   2.0122   2.0219
     2.0298   2.0464   2.0595   2.0684   2.0715   2.0926   2.1102   2.1122
     2.1279   2.1366   2.1580   2.1824   2.2016   2.2262   2.2550   2.2805
     2.2994   2.3153   2.3385   2.3476   2.3634   2.3760   2.3843   2.4133
     2.4262   2.4444   2.4665   2.4783   2.4902   2.4981   2.5092   2.5260
     2.5418   2.5672   2.5721   2.5869   2.5963   2.6197   2.6340   2.6419
     2.6735   2.6954   2.7093   2.7181   2.7268   2.7417   2.7642   2.7767
     2.7904   2.7994   2.8125   2.8227   2.8415   2.8534   2.8671   2.8874
     2.8952   2.9021   2.9156   2.9276   2.9392   2.9457   2.9784   2.9871
     2.9963   3.1082   3.2123   3.2447   3.2988   3.3170   3.3348   3.3995
     3.4172   3.4328   3.4669   3.4903   3.5394   3.5596   3.6033   3.6229
     3.6686   3.6962   3.7348   3.7774   3.8114   3.8559   3.9434   3.9761
     4.0034   4.0136   4.0452   4.0836   4.1023   4.1599   4.1791   4.2244
     4.2519   4.2705   4.3001   4.3965   4.4387   4.4504   4.4696   4.5415
     4.6199   4.6668   4.7393   4.7709   4.8085   4.9366   4.9845   5.1087
     5.1404   5.1568   5.1626   5.1919   5.2479   5.2571   5.2866   5.3252
     5.3402   5.3585   5.3730   5.4027   5.4162   5.4938   5.5417   5.5692
     5.5986   5.6157   5.6382   5.6545   5.6755   5.6919   5.7139   5.7522
     5.7710   5.7942   5.8152   5.8365   5.8542   5.8897   5.9249   5.9335
     5.9447   5.9810   6.0018   6.0150   6.0504   6.0708   6.0828   6.1112
     6.1630   6.1949   6.2302   6.2607   6.2835   6.2998   6.3273   6.3381
     6.3561   6.3644   6.3924   6.4542   6.5077   6.5889   6.6051   6.6243
     6.6767   6.8786   6.9129   6.9322   8.6574  11.1016  11.1400  11.7310
    11.7835  11.8497  11.9325  12.0239  12.1960  12.6044  12.6797  12.7023
    12.7253  12.7784  12.8050  12.8589  12.8790  12.9453  13.0273  13.1172
    13.1724  13.4871  14.5488  14.5567  14.7161  14.7609  14.7905  14.8206
    14.8553  14.8788  14.8875  14.9521  14.9567  14.9872  15.0382  15.0560
    15.0770  15.1104  15.1760  15.1927  15.2427  15.3159  15.3806  15.4641
    15.4977  15.5642  15.6429  15.6745  15.6929  15.7912  15.8571  15.9689
    15.9780  16.0218  16.0552  16.0896  16.0965  16.2314  16.2983  16.5183
    16.5433  16.7696  16.9678  17.0013  17.0599  17.2096  17.2544  17.3112
    17.3619  17.3787  17.5620  17.6306  17.7474  17.9718  18.0084  18.0607
    18.1039  18.2471

     occupation numbers
     1.0000   1.0000   1.0000   1.0000   1.0000   1.0000   1.0000   1.0000
     1.0000   1.0000   1.0000   1.0000   1.0000   1.0000   1.0000   1.0000
     1.0000   1.0000   1.0000   1.0000   1.0000   1.0000   1.0000   1.0000
     1.0000   1.0000   1.0000   1.0000   1.0000   1.0000   1.0000   1.0000
     1.0000   1.0000   1.0000   1.0000   1.0000   1.0000   1.0000   1.0000
     1.0000   1.0000   1.0000   1.0000   1.0000   1.0000   1.0000   1.0000
     1.0000   1.0000   1.0000   1.0000   1.0000   1.0000   1.0000   1.0000
     1.0000   1.0000   1.0000   1.0000   1.0000   1.0000   1.0000   1.0000
     1.0000   1.0000   1.0000   1.0000   1.0000   1.0000   1.0000   1.0000
     1.0000   1.0000   1.0000   1.0000   1.0000   1.0000   1.0000   1.0000
     1.0000   1.0000   1.0000   1.0000   1.0000   1.0000   1.0000   1.0000
     1.0000   1.0000   1.0000   1.0000   1.0000   1.0000   1.0000   1.0000
     1.0000   1.0000   1.0000   1.0000   1.0000   1.0000   1.0000   1.0000
     1.0000   1.0000   1.0000   1.0000   1.0000   1.0000   1.0000   1.0000
     1.0000   1.0000   1.0000   1.0000   1.0000   1.0000   1.0000   1.0000
     1.0000   1.0000   1.0000   1.0000   1.0000   1.0000   1.0000   1.0000
     1.0000   1.0000   1.0000   1.0000   1.0000   1.0000   1.0000   1.0000
     1.0000   1.0000   1.0000   1.0000   1.0000   1.0000   1.0000   1.0000
     1.0000   1.0000   1.0000   1.0000   1.0000   1.0000   1.0000   1.0000
     1.0000   1.0000   1.0000   1.0000   1.0000   1.0000   1.0000   1.0000
     1.0000   1.0000   1.0000   1.0000   1.0000   1.0000   1.0000   1.0000
     1.0000   1.0000   1.0000   1.0000   1.0000   1.0000   1.0000   1.0000
     1.0000   1.0000   1.0000   1.0000   1.0000   1.0000   1.0000   1.0000
     1.0000   1.0000   1.0000   1.0000   1.0000   1.0000   1.0000   1.0000
     1.0000   1.0000   1.0000   1.0000   1.0000   1.0000   1.0000   1.0000
     1.0000   1.0000   1.0000   1.0000   1.0000   1.0000   1.0000   1.0000
     1.0000   1.0000   1.0000   1.0000   1.0000   1.0000   1.0000   1.0000
     1.0000   1.0000   1.0000   1.0000   1.0000   1.0000   1.0000   1.0000
     1.0000   1.0000   1.0000   1.0000   1.0000   1.0000   1.0000   1.0000
     1.0000   1.0000   1.0000   1.0000   1.0000   1.0000   1.0000   1.0000
     1.0000   1.0000   1.0000   1.0000   1.0000   1.0000   1.0000   1.0000
     1.0000   1.0000   1.0000   1.0000   1.0000   1.0000   1.0000   1.0000
     1.0000   1.0000   1.0000   1.0000   1.0000   1.0000   1.0000   1.0000
     1.0000   1.0000   1.0000   1.0000   1.0000   1.0000   1.0000   1.0000
     1.0000   1.0000   1.0000   1.0000   1.0000   1.0000   1.0000   1.0000
     1.0000   1.0000   1.0000   1.0000   1.0000   1.0000   1.0000   1.0000
     1.0000   1.0000   1.0000   1.0000   1.0000   1.0000   1.0000   1.0000
     1.0000   1.0000   1.0000   1.0000   1.0000   1.0000   1.0000   1.0000
     1.0000   1.0000   1.0000   1.0000   1.0000   1.0000   1.0000   1.0000
     1.0000   1.0000   1.0000   1.0000   1.0000   1.0000   1.0000   1.0000
     1.0000   1.0000   1.0000   1.0000   1.0000   1.0000   1.0000   1.0000
     1.0000   1.0000   1.0000   1.0000   1.0000   1.0000   1.0000   1.0000
     1.0000   1.0000   1.0000   1.0000   1.0000   1.0000   1.0000   1.0000
     1.0000   1.0000   1.0000   1.0000   1.0000   1.0000   1.0000   1.0000
     1.0000   1.0000   1.0000   1.0000   1.0000   1.0000   1.0000   1.0000
     1.0000   1.0000   1.0000   1.0000   1.0000   1.0000   1.0000   1.0000
     1.0000   1.0000   1.0000   1.0000   1.0000   1.0000   1.0000   1.0000
     1.0000   1.0000   1.0000   1.0000   1.0000   1.0000   1.0000   1.0000
     1.0000   1.0000   1.0000   1.0000   0.0000   0.0000   0.0000   0.0000
     0.0000   0.0000   0.0000   0.0000   0.0000   0.0000   0.0000   0.0000
     0.0000   0.0000   0.0000   0.0000   0.0000   0.0000   0.0000   0.0000
     0.0000   0.0000   0.0000   0.0000   0.0000   0.0000   0.0000   0.0000
     0.0000   0.0000   0.0000   0.0000   0.0000   0.0000   0.0000   0.0000
     0.0000   0.0000   0.0000   0.0000   0.0000   0.0000   0.0000   0.0000
     0.0000   0.0000   0.0000   0.0000   0.0000   0.0000   0.0000   0.0000
     0.0000   0.0000   0.0000   0.0000   0.0000   0.0000   0.0000   0.0000
     0.0000   0.0000   0.0000   0.0000   0.0000   0.0000   0.0000   0.0000
     0.0000   0.0000   0.0000   0.0000   0.0000   0.0000   0.0000   0.0000
     0.0000   0.0000

          k =-0.0002-0.0000 0.2349 ( 45407 PWs)   bands (ev):

[...]

          k = 0.2501-0.1440-0.2350 ( 45418 PWs)   bands (ev):

[...]

          k =-0.5003-0.8657-0.4693 ( 45394 PWs)   bands (ev):

  -115.8093-115.8054-115.8024-115.8015-115.8000-115.8000-115.7994-115.7989
  -115.7977-115.7971-115.7964-115.7955-115.7932-115.7887-115.7880-115.7860
  -115.7841-115.7787-115.7766-115.7641 -70.1702 -70.1658 -70.1649 -70.1621
   -70.1614 -70.1609 -70.1608 -70.1596 -70.1594 -70.1592 -70.1589 -70.1583
   -70.1580 -70.1577 -70.1569 -70.1567 -70.1566 -70.1564 -70.1564 -70.1563
   -70.1562 -70.1560 -70.1558 -70.1542 -70.1535 -70.1532 -70.1532 -70.1530
   -70.1529 -70.1520 -70.1508 -70.1504 -70.1494 -70.1494 -70.1489 -70.1488
   -70.1485 -70.1474 -70.1471 -70.1459 -70.1453 -70.1444 -70.1441 -70.1440
   -70.1432 -70.1419 -70.1406 -70.1399 -70.1397 -70.1396 -70.1381 -70.1373
   -70.1373 -70.1363 -70.1329 -70.1280 -70.1269 -70.1251 -70.1210 -70.1147
   -65.2811 -65.2708 -65.2572 -65.2545 -65.2411 -65.2340 -65.2312 -65.2278
   -65.2244 -65.2190 -65.2163 -65.2101 -65.2069 -65.2066 -65.1965 -65.1881
   -32.2710 -32.2649 -32.2643 -32.2622 -32.2574 -32.2548 -32.2466 -32.2451
   -32.2443 -32.2420 -32.2405 -32.2368 -32.2329 -32.2286 -32.2283 -32.2256
   -32.2233 -32.2225 -32.2220 -32.2208 -32.2171 -32.2160 -32.2145 -32.2105
   -32.2100 -32.2094 -32.2082 -32.2074 -32.2071 -32.2049 -32.2026 -32.2018
   -32.1992 -32.1985 -32.1975 -32.1959 -32.1948 -32.1942 -32.1916 -32.1906
   -32.1877 -32.1869 -32.1865 -32.1813 -32.1771 -32.1762 -32.1708 -32.1677
   -10.1926 -10.1835 -10.1243  -9.9947  -9.9591  -9.9193  -9.8808  -9.8126
    -9.7584  -9.7289  -9.7144  -9.6988  -9.6658  -9.6578  -9.6554  -9.6377
    -9.5939  -9.5814  -9.5642  -9.5414  -9.5201  -9.5143  -9.4841  -9.4730
    -9.4584  -9.4362  -9.4199  -9.3858  -9.3461  -9.3065  -9.2908  -9.2877
    -9.2758  -9.2490  -9.1786  -9.0686   1.4859   1.5357   1.5429   1.5621
     1.5762   1.5818   1.6028   1.6073   1.6191   1.6547   1.6679   1.6851
     1.6901   1.6979   1.7302   1.7462   1.7498   1.7773   1.7884   1.8083
     1.8190   1.8261   1.8419   1.8626   1.8777   1.8852   1.8943   1.9172
     1.9268   1.9403   1.9512   1.9646   1.9796   1.9929   2.0104   2.0209
     2.0347   2.0390   2.0453   2.0496   2.0607   2.0684   2.0758   2.0851
     2.1019   2.1191   2.1334   2.1472   2.1682   2.1831   2.1901   2.1952
     2.2159   2.2263   2.2389   2.2549   2.2888   2.3036   2.3188   2.3509
     2.3650   2.3788   2.3975   2.4240   2.4377   2.4458   2.4852   2.4991
     2.5099   2.5249   2.5451   2.5632   2.5949   2.6102   2.6205   2.6503
     2.6606   2.6680   2.6866   2.7035   2.7171   2.7340   2.7598   2.7749
     2.8008   2.8125   2.8249   2.8326   2.8372   2.8536   2.8665   2.8846
     2.8960   2.9022   2.9176   2.9449   2.9524   2.9703   2.9851   3.0030
     3.0575   3.1104   3.1428   3.2112   3.2355   3.3144   3.3316   3.3432
     3.3761   3.4155   3.4768   3.5144   3.5416   3.6023   3.6137   3.6538
     3.6839   3.7150   3.7771   3.7972   3.8740   3.8938   3.9622   4.0076
     4.0272   4.0737   4.1486   4.2205   4.3149   4.4014   4.4684   4.5314
     4.5411   4.5584   4.5914   4.6078   4.6488   4.6745   4.7233   4.7453
     4.7839   4.8717   4.8936   4.9181   4.9432   4.9865   5.0007   5.0136
     5.0394   5.0854   5.1174   5.1183   5.1609   5.1811   5.2024   5.2136
     5.2205   5.2751   5.2887   5.3114   5.3569   5.3649   5.4188   5.4507
     5.4843   5.4916   5.5173   5.5726   5.6171   5.6344   5.6725   5.7048
     5.7093   5.7365   5.7537   5.7879   5.8039   5.8498   5.8821   5.9048
     5.9294   5.9729   5.9776   6.0101   6.0184   6.0538   6.0751   6.0858
     6.1111   6.1219   6.1355   6.1625   6.1879   6.2079   6.2333   6.2545
     6.3112   6.3420   6.3902   6.3964   6.4630   6.5181   6.5850   6.6354
     6.6657   6.6898   6.7120   6.7729  10.3826  10.4312  10.5362  10.7809
    11.6359  11.7275  11.8009  12.0651  12.8335  12.9652  13.0439  13.0643
    13.1741  13.1931  13.2738  13.3248  13.3464  13.5121  13.5546  13.6372
    13.7017  13.7739  13.7974  13.8387  13.9984  14.0726  14.1225  14.1523
    14.2258  14.2696  14.2798  14.3338  14.3503  14.3822  14.4169  14.4204
    15.1921  15.2816  15.3853  15.4021  15.4443  15.4950  15.5857  15.6579
    15.7148  15.7763  15.8531  15.8612  15.9304  16.0016  16.0529  16.1574
    16.2728  16.3736  16.4955  16.5777  16.6331  16.7635  16.7978  16.9441
    17.0112  17.0433  17.0636  17.0761  17.1316  17.1659  17.2193  17.2473
    17.3792  17.4675  17.6504  17.7055  17.8085  17.8599  17.9134  18.1609
    18.2275  18.2492

     occupation numbers
     1.0000   1.0000   1.0000   1.0000   1.0000   1.0000   1.0000   1.0000
     1.0000   1.0000   1.0000   1.0000   1.0000   1.0000   1.0000   1.0000
     1.0000   1.0000   1.0000   1.0000   1.0000   1.0000   1.0000   1.0000
     1.0000   1.0000   1.0000   1.0000   1.0000   1.0000   1.0000   1.0000
     1.0000   1.0000   1.0000   1.0000   1.0000   1.0000   1.0000   1.0000
     1.0000   1.0000   1.0000   1.0000   1.0000   1.0000   1.0000   1.0000
     1.0000   1.0000   1.0000   1.0000   1.0000   1.0000   1.0000   1.0000
     1.0000   1.0000   1.0000   1.0000   1.0000   1.0000   1.0000   1.0000
     1.0000   1.0000   1.0000   1.0000   1.0000   1.0000   1.0000   1.0000
     1.0000   1.0000   1.0000   1.0000   1.0000   1.0000   1.0000   1.0000
     1.0000   1.0000   1.0000   1.0000   1.0000   1.0000   1.0000   1.0000
     1.0000   1.0000   1.0000   1.0000   1.0000   1.0000   1.0000   1.0000
     1.0000   1.0000   1.0000   1.0000   1.0000   1.0000   1.0000   1.0000
     1.0000   1.0000   1.0000   1.0000   1.0000   1.0000   1.0000   1.0000
     1.0000   1.0000   1.0000   1.0000   1.0000   1.0000   1.0000   1.0000
     1.0000   1.0000   1.0000   1.0000   1.0000   1.0000   1.0000   1.0000
     1.0000   1.0000   1.0000   1.0000   1.0000   1.0000   1.0000   1.0000
     1.0000   1.0000   1.0000   1.0000   1.0000   1.0000   1.0000   1.0000
     1.0000   1.0000   1.0000   1.0000   1.0000   1.0000   1.0000   1.0000
     1.0000   1.0000   1.0000   1.0000   1.0000   1.0000   1.0000   1.0000
     1.0000   1.0000   1.0000   1.0000   1.0000   1.0000   1.0000   1.0000
     1.0000   1.0000   1.0000   1.0000   1.0000   1.0000   1.0000   1.0000
     1.0000   1.0000   1.0000   1.0000   1.0000   1.0000   1.0000   1.0000
     1.0000   1.0000   1.0000   1.0000   1.0000   1.0000   1.0000   1.0000
     1.0000   1.0000   1.0000   1.0000   1.0000   1.0000   1.0000   1.0000
     1.0000   1.0000   1.0000   1.0000   1.0000   1.0000   1.0000   1.0000
     1.0000   1.0000   1.0000   1.0000   1.0000   1.0000   1.0000   1.0000
     1.0000   1.0000   1.0000   1.0000   1.0000   1.0000   1.0000   1.0000
     1.0000   1.0000   1.0000   1.0000   1.0000   1.0000   1.0000   1.0000
     1.0000   1.0000   1.0000   1.0000   1.0000   1.0000   1.0000   1.0000
     1.0000   1.0000   1.0000   1.0000   1.0000   1.0000   1.0000   1.0000
     1.0000   1.0000   1.0000   1.0000   1.0000   1.0000   1.0000   1.0000
     1.0000   1.0000   1.0000   1.0000   1.0000   1.0000   1.0000   1.0000
     1.0000   1.0000   1.0000   1.0000   1.0000   1.0000   1.0000   1.0000
     1.0000   1.0000   1.0000   1.0000   1.0000   1.0000   1.0000   1.0000
     1.0000   1.0000   1.0000   1.0000   1.0000   1.0000   1.0000   1.0000
     1.0000   1.0000   1.0000   1.0000   1.0000   1.0000   1.0000   1.0000
     1.0000   1.0000   1.0000   1.0000   1.0000   1.0000   1.0000   1.0000
     1.0000   1.0000   1.0000   1.0000   1.0000   1.0000   1.0000   1.0000
     1.0000   1.0000   1.0000   1.0000   1.0000   1.0000   1.0000   1.0000
     1.0000   1.0000   1.0000   1.0000   1.0000   1.0000   1.0000   1.0000
     1.0000   1.0000   1.0000   1.0000   1.0000   1.0000   1.0000   1.0000
     1.0000   1.0000   1.0000   1.0000   1.0000   1.0000   1.0000   1.0000
     1.0000   1.0000   1.0000   1.0000   1.0000   1.0000   1.0000   1.0000
     1.0000   1.0000   1.0000   1.0000   1.0000   1.0000   1.0000   1.0000
     1.0000   1.0000   1.0000   1.0000   1.0000   1.0000   1.0000   1.0000
     1.0000   1.0000   1.0000   1.0000   1.0000   1.0000   1.0000   1.0000
     1.0000   1.0000   1.0000   1.0000   1.0000   1.0000   1.0000   1.0000
     1.0000   1.0000   1.0000   1.0000   0.0000   0.0000   0.0000   0.0000
     0.0000   0.0000   0.0000   0.0000   0.0000   0.0000   0.0000   0.0000
     0.0000   0.0000   0.0000   0.0000   0.0000   0.0000   0.0000   0.0000
     0.0000   0.0000   0.0000   0.0000   0.0000   0.0000   0.0000   0.0000
     0.0000   0.0000   0.0000   0.0000   0.0000   0.0000   0.0000   0.0000
     0.0000   0.0000   0.0000   0.0000   0.0000   0.0000   0.0000   0.0000
     0.0000   0.0000   0.0000   0.0000   0.0000   0.0000   0.0000   0.0000
     0.0000   0.0000   0.0000   0.0000   0.0000   0.0000   0.0000   0.0000
     0.0000   0.0000   0.0000   0.0000   0.0000   0.0000   0.0000   0.0000
     0.0000   0.0000   0.0000   0.0000   0.0000   0.0000   0.0000   0.0000
     0.0000   0.0000

     the Fermi energy is     7.8433 ev

!    total energy              =  -12392.23145510 Ry
     Harris-Foulkes estimate   =  -12392.23145510 Ry
     estimated scf accuracy    <          1.6E-09 Ry

     The total energy is the sum of the following terms:

     one-electron contribution =  -10441.50309674 Ry
     hartree contribution      =    5472.00997944 Ry
     xc contribution           =   -1365.03030575 Ry
     ewald contribution        =   -6057.70803205 Ry
     smearing contrib. (-TS)   =       0.00000000 Ry

     convergence has been achieved in  14 iterations

     Writing output data file ZnO.save/

     General routines

     Parallel routines

   This run was terminated on:   2:11:29  15Jul2022

   JOB DONE.