     Program PWSCF v.6.4.1 starts on  8Jun2022 at 16:39:26

     K-points division:     npool     =       4
     R & G space division:  proc/nbgrp/npool/nimage =      16
     Waiting for input...
     Reading input from standard input

     Current dimensions of program PWSCF are:
     Max number of different atomic species (ntypx) = 10
     Max number of k-points (npk) =  40000
     Max angular momentum in pseudopotentials (lmaxx) =  3

     bravais-lattice index     =            0
     lattice parameter (alat)  =       6.1103  a.u.
     unit-cell volume          =     318.8455 (a.u.)^3
     number of atoms/cell      =            4
     number of atomic types    =            3
     number of electrons       =        42.00
     number of Kohn-Sham states=           21
     kinetic-energy cutoff     =      80.0000  Ry
     charge density cutoff     =     600.0000  Ry
     convergence threshold     =      1.0E-06
     mixing beta               =       0.5000
     number of iterations used =            8  plain     mixing
     Exchange-correlation      = SLA  PW   PSX  PSC ( 1  4 10  8 0 0)
     nstep                     =          200

     celldm(1)=   6.110292  celldm(2)=   0.000000  celldm(3)=   0.000000
     celldm(4)=   0.000000  celldm(5)=   0.000000  celldm(6)=   0.000000

     crystal axes: (cart. coord. in units of alat)
               a(1) = (   1.000000  -0.000000  -0.000000 )
               a(2) = (  -0.500000   0.866025  -0.000000 )
               a(3) = (  -0.000000  -0.000000   1.613853 )

     reciprocal axes: (cart. coord. in units 2 pi/alat)
               b(1) = (  1.000000  0.577350  0.000000 )
               b(2) = (  0.000000  1.154701  0.000000 )
               b(3) = (  0.000000  0.000000  0.619635 )

     PseudoPot. # 1 for Mg read from file:
     ./GBRV_PBEsol/mg_pbesol_v1.4.uspp.F.UPF
     MD5 check sum: 4059f37963cf5867752dbf5ab2400678
     Pseudo is Ultrasoft, Zval = 10.0
     Generated by new atomic code, or converted to UPF format
     Using radial grid of  821 points,  7 beta functions with:
                l(1) =   0
                l(2) =   0
                l(3) =   0
                l(4) =   1
                l(5) =   1
                l(6) =   2
                l(7) =   2
     Q(r) pseudized with  8 coefficients,  rinner =    1.200   1.200   1.200
                                                       1.200   1.200

     PseudoPot. # 2 for Zn read from file:
     ./GBRV_PBEsol/zn_pbesol_v1.uspp.F.UPF
     MD5 check sum: 7d8615e52efe7c1e2b1899de8658bae2
     Pseudo is Ultrasoft, Zval = 20.0
     Generated by new atomic code, or converted to UPF format
     Using radial grid of  943 points,  6 beta functions with:
                l(1) =   0
                l(2) =   0
                l(3) =   1
                l(4) =   1
                l(5) =   2
                l(6) =   2
     Q(r) pseudized with  8 coefficients,  rinner =    1.100   1.100   1.100
                                                       1.100   1.100

     PseudoPot. # 3 for O  read from file:
     ./GBRV_PBEsol/o_pbesol_v1.2.uspp.F.UPF
     MD5 check sum: 501638753501ef6325af9037351f7734
     Pseudo is Ultrasoft + core correction, Zval =  6.0
     Generated by new atomic code, or converted to UPF format
     Using radial grid of  737 points,  5 beta functions with:
                l(1) =   0
                l(2) =   0
                l(3) =   1
                l(4) =   1
                l(5) =   2
     Q(r) pseudized with  8 coefficients,  rinner =    0.900   0.900   0.900
                                                       0.900   0.900

     atomic species   valence    mass     pseudopotential
        Mg            10.00    24.30500     Mg( 1.00)
        Zn            20.00    65.38000     Zn( 1.00)
        O              6.00    15.99900     O ( 1.00)

     No symmetry found

                                    s                        frac. trans.

      isym =  1     identity

 cryst.   s( 1) = (     1          0          0      )
                  (     0          1          0      )
                  (     0          0          1      )

 cart.    s( 1) = (  1.0000000  0.0000000 -0.0000000 )
                  ( -0.0000000  1.0000000  0.0000000 )
                  ( -0.0000000 -0.0000000  1.0000000 )

   Cartesian axes

     site n.     atom                  positions (alat units)
         1           O   tau(   1) = (   0.5000001   0.2886754   0.0118550  )
         2           O   tau(   2) = (  -0.0000000   0.5773492   0.8187812  )
         3           Zn  tau(   3) = (   0.4999999   0.2886746   0.6197095  )
         4           Mg  tau(   4) = (  -0.0000003   0.5773508   1.4319366  )

   Crystallographic axes

     site n.     atom                  positions (cryst. coord.)
         1           O   tau(   1) = (  0.6666670  0.3333337  0.0073459  )
         2           O   tau(   2) = (  0.3333329  0.6666657  0.5073458  )
         3           Zn  tau(   3) = (  0.6666664  0.3333329  0.3839939  )
         4           Mg  tau(   4) = (  0.3333336  0.6666677  0.8872785  )

     number of k points=   260
                       cart. coord. in units 2pi/alat
        k(    1) = (   0.0000000   0.0000000   0.0000000), wk =   0.0039062
        k(    2) = (   0.0000000   0.0000000   0.0774544), wk =   0.0078125
        k(    3) = (   0.0000000   0.0000000   0.1549088), wk =   0.0078125
        k(    4) = (   0.0000000   0.0000000   0.2323632), wk =   0.0078125
        k(    5) = (  -0.0000000  -0.0000000  -0.3098176), wk =   0.0039062
        k(    6) = (   0.0000000   0.1443376   0.0000000), wk =   0.0078125
        k(    7) = (   0.0000000   0.1443376   0.0774544), wk =   0.0078125
        k(    8) = (   0.0000000   0.1443376   0.1549088), wk =   0.0078125
        k(    9) = (   0.0000000   0.1443376   0.2323633), wk =   0.0078125
        k(   10) = (  -0.0000000   0.1443375  -0.3098176), wk =   0.0078125
        k(   11) = (  -0.0000000   0.1443376  -0.2323632), wk =   0.0078125
        k(   12) = (  -0.0000000   0.1443376  -0.1549088), wk =   0.0078125
        k(   13) = (  -0.0000000   0.1443376  -0.0774544), wk =   0.0078125
        k(   14) = (   0.0000000   0.2886752   0.0000000), wk =   0.0078125
        k(   15) = (   0.0000000   0.2886752   0.0774545), wk =   0.0078125
        k(   16) = (   0.0000000   0.2886752   0.1549089), wk =   0.0078125
        k(   17) = (   0.0000000   0.2886752   0.2323633), wk =   0.0078125
        k(   18) = (  -0.0000000   0.2886751  -0.3098176), wk =   0.0078125
        k(   19) = (  -0.0000000   0.2886752  -0.2323632), wk =   0.0078125
        k(   20) = (  -0.0000000   0.2886752  -0.1549088), wk =   0.0078125
        k(   21) = (  -0.0000000   0.2886752  -0.0774544), wk =   0.0078125
        k(   22) = (   0.0000000   0.4330128   0.0000001), wk =   0.0078125
        k(   23) = (   0.0000000   0.4330128   0.0774545), wk =   0.0078125
        k(   24) = (   0.0000000   0.4330128   0.1549089), wk =   0.0078125
        k(   25) = (   0.0000000   0.4330128   0.2323633), wk =   0.0078125
        k(   26) = (  -0.0000000   0.4330127  -0.3098176), wk =   0.0078125
        k(   27) = (  -0.0000000   0.4330127  -0.2323632), wk =   0.0078125
        k(   28) = (  -0.0000000   0.4330128  -0.1549088), wk =   0.0078125
        k(   29) = (  -0.0000000   0.4330128  -0.0774543), wk =   0.0078125
        k(   30) = (  -0.0000000  -0.5773504  -0.0000001), wk =   0.0039062
        k(   31) = (  -0.0000000  -0.5773504   0.0774543), wk =   0.0078125
        k(   32) = (   0.0000000  -0.5773503   0.1549087), wk =   0.0078125
        k(   33) = (   0.0000000  -0.5773503   0.2323631), wk =   0.0078125
        k(   34) = (  -0.0000000  -0.5773504  -0.3098177), wk =   0.0039062
        k(   35) = (   0.1250000   0.0721688   0.0000000), wk =   0.0078125
        k(   36) = (   0.1250000   0.0721688   0.0774544), wk =   0.0078125
        k(   37) = (   0.1250000   0.0721688   0.1549088), wk =   0.0078125
        k(   38) = (   0.1250000   0.0721688   0.2323633), wk =   0.0078125
        k(   39) = (   0.1250000   0.0721688  -0.3098176), wk =   0.0078125
        k(   40) = (   0.1250000   0.0721688  -0.2323632), wk =   0.0078125
        k(   41) = (   0.1250000   0.0721688  -0.1549088), wk =   0.0078125
        k(   42) = (   0.1250000   0.0721688  -0.0774544), wk =   0.0078125
        k(   43) = (   0.1250000   0.2165064   0.0000000), wk =   0.0078125
        k(   44) = (   0.1250000   0.2165064   0.0774545), wk =   0.0078125
        k(   45) = (   0.1250000   0.2165064   0.1549089), wk =   0.0078125
        k(   46) = (   0.1250000   0.2165064   0.2323633), wk =   0.0078125
        k(   47) = (   0.1250000   0.2165063  -0.3098176), wk =   0.0078125
        k(   48) = (   0.1250000   0.2165064  -0.2323632), wk =   0.0078125
        k(   49) = (   0.1250000   0.2165064  -0.1549088), wk =   0.0078125
        k(   50) = (   0.1250000   0.2165064  -0.0774544), wk =   0.0078125
        k(   51) = (   0.1250000   0.3608440   0.0000001), wk =   0.0078125
        k(   52) = (   0.1250000   0.3608440   0.0774545), wk =   0.0078125
        k(   53) = (   0.1250000   0.3608440   0.1549089), wk =   0.0078125
        k(   54) = (   0.1250000   0.3608440   0.2323633), wk =   0.0078125
        k(   55) = (   0.1250000   0.3608439  -0.3098176), wk =   0.0078125
        k(   56) = (   0.1250000   0.3608440  -0.2323632), wk =   0.0078125
        k(   57) = (   0.1250000   0.3608440  -0.1549088), wk =   0.0078125
        k(   58) = (   0.1250000   0.3608440  -0.0774543), wk =   0.0078125
        k(   59) = (   0.1250000   0.5051816   0.0000001), wk =   0.0078125
        k(   60) = (   0.1250000   0.5051816   0.0774545), wk =   0.0078125
[...]
        k(  246) = (  -0.5000000  -0.0000000  -0.1549089), wk =   0.0078125
        k(  247) = (  -0.5000000  -0.0000000  -0.0774545), wk =   0.0078125
        k(  248) = (  -0.5000000   0.1443376  -0.0000000), wk =   0.0078125
        k(  249) = (  -0.5000000   0.1443376   0.0774544), wk =   0.0078125
        k(  250) = (  -0.5000000   0.1443376   0.1549088), wk =   0.0078125
        k(  251) = (  -0.5000000   0.1443376   0.2323632), wk =   0.0078125
        k(  252) = (  -0.5000000   0.1443375  -0.3098177), wk =   0.0078125
        k(  253) = (  -0.5000000   0.1443375  -0.2323633), wk =   0.0078125
        k(  254) = (  -0.5000000   0.1443376  -0.1549089), wk =   0.0078125
        k(  255) = (  -0.5000000   0.1443376  -0.0774544), wk =   0.0078125
        k(  256) = (  -0.5000000  -0.8660256  -0.0000002), wk =   0.0039062
        k(  257) = (  -0.5000000  -0.8660256   0.0774542), wk =   0.0078125
        k(  258) = (  -0.5000000  -0.8660255   0.1549086), wk =   0.0078125
        k(  259) = (  -0.5000000  -0.8660255   0.2323631), wk =   0.0078125
        k(  260) = (  -0.5000000  -0.8660256  -0.3098178), wk =   0.0039062

                       cryst. coord.
        k(    1) = (   0.0000000   0.0000000   0.0000000), wk =   0.0039062
        k(    2) = (  -0.0000000  -0.0000000   0.1250000), wk =   0.0078125
        k(    3) = (  -0.0000000  -0.0000000   0.2500000), wk =   0.0078125
[...]
        k(   23) = (  -0.0000002   0.4311819   0.0777520), wk =   0.0078125
        k(   24) = (  -0.0000002   0.4311819   0.1555040), wk =   0.0078125
        k(   25) = (  -0.0000002   0.4311818   0.2332560), wk =   0.0078125
        k(   26) = (  -0.0000001   0.4311819  -0.3110081), wk =   0.0078125
        k(   27) = (  -0.0000001   0.4311819  -0.2332561), wk =   0.0078125
        k(   28) = (  -0.0000001   0.4311819  -0.1555041), wk =   0.0078125
        k(   29) = (  -0.0000001   0.4311819  -0.0777520), wk =   0.0078125
        k(   30) = (   0.0000002  -0.5749092   0.0000001), wk =   0.0039062
        k(   31) = (   0.0000002  -0.5749092   0.0777521), wk =   0.0078125
        k(   32) = (   0.0000002  -0.5749092   0.1555041), wk =   0.0078125
        k(   33) = (   0.0000001  -0.5749092   0.2332561), wk =   0.0078125
        k(   34) = (   0.0000002  -0.5749091  -0.3110080), wk =   0.0039062
        k(   35) = (   0.1244714   0.0718636  -0.0000000), wk =   0.0078125
        k(   36) = (   0.1244714   0.0718636   0.0777520), wk =   0.0078125
        k(   37) = (   0.1244714   0.0718636   0.1555040), wk =   0.0078125
        k(   38) = (   0.1244714   0.0718636   0.2332560), wk =   0.0078125
        k(   39) = (   0.1244715   0.0718636  -0.3110081), wk =   0.0078125
        k(   40) = (   0.1244714   0.0718636  -0.2332560), wk =   0.0078125
        k(   41) = (   0.1244714   0.0718636  -0.1555040), wk =   0.0078125
        k(   42) = (   0.1244714   0.0718636  -0.0777520), wk =   0.0078125
        k(   43) = (   0.1244714   0.2155909  -0.0000000), wk =   0.0078125
        k(   44) = (   0.1244713   0.2155909   0.0777520), wk =   0.0078125
        k(   45) = (   0.1244713   0.2155909   0.1555040), wk =   0.0078125
        k(   46) = (   0.1244713   0.2155909   0.2332560), wk =   0.0078125
        k(   47) = (   0.1244714   0.2155909  -0.3110081), wk =   0.0078125
        k(   48) = (   0.1244714   0.2155909  -0.2332561), wk =   0.0078125
        k(   49) = (   0.1244714   0.2155909  -0.1555041), wk =   0.0078125
        k(   50) = (   0.1244714   0.2155909  -0.0777520), wk =   0.0078125
        k(   51) = (   0.1244713   0.3593182  -0.0000001), wk =   0.0078125
        k(   52) = (   0.1244713   0.3593182   0.0777519), wk =   0.0078125
        k(   53) = (   0.1244713   0.3593182   0.1555040), wk =   0.0078125
        k(   54) = (   0.1244713   0.3593182   0.2332560), wk =   0.0078125
        k(   55) = (   0.1244714   0.3593182  -0.3110081), wk =   0.0078125
        k(   56) = (   0.1244714   0.3593182  -0.2332561), wk =   0.0078125
        k(   57) = (   0.1244713   0.3593182  -0.1555041), wk =   0.0078125
        k(   58) = (   0.1244713   0.3593182  -0.0777521), wk =   0.0078125
        k(   59) = (   0.1244713   0.5030455  -0.0000001), wk =   0.0078125
        k(   60) = (   0.1244713   0.5030455   0.0777519), wk =   0.0078125
[...]
        k(  246) = (  -0.4978857   0.0000002  -0.1555039), wk =   0.0078125
        k(  247) = (  -0.4978857   0.0000002  -0.0777519), wk =   0.0078125
        k(  248) = (  -0.4978858   0.1437274   0.0000001), wk =   0.0078125
        k(  249) = (  -0.4978858   0.1437274   0.0777521), wk =   0.0078125
        k(  250) = (  -0.4978858   0.1437274   0.1555041), wk =   0.0078125
        k(  251) = (  -0.4978858   0.1437274   0.2332561), wk =   0.0078125
        k(  252) = (  -0.4978857   0.1437275  -0.3110079), wk =   0.0078125
        k(  253) = (  -0.4978857   0.1437275  -0.2332559), wk =   0.0078125
        k(  254) = (  -0.4978857   0.1437275  -0.1555039), wk =   0.0078125
        k(  255) = (  -0.4978857   0.1437275  -0.0777519), wk =   0.0078125
        k(  256) = (  -0.4978854  -0.8623636   0.0000002), wk =   0.0039062
        k(  257) = (  -0.4978855  -0.8623636   0.0777522), wk =   0.0078125
        k(  258) = (  -0.4978855  -0.8623636   0.1555042), wk =   0.0078125
        k(  259) = (  -0.4978855  -0.8623636   0.2332562), wk =   0.0078125
        k(  260) = (  -0.4978854  -0.8623635  -0.3110078), wk =   0.0039062

                       cryst. coord.
        k(    1) = (   0.0000000   0.0000000   0.0000000), wk =   0.0039062
        k(    2) = (   0.0000000  -0.0000000   0.1250000), wk =   0.0078125
        k(    3) = (   0.0000000  -0.0000000   0.2500000), wk =   0.0078125
        k(    4) = (   0.0000000  -0.0000000   0.3750000), wk =   0.0078125
        k(    5) = (  -0.0000000   0.0000000  -0.5000000), wk =   0.0039062
        k(    6) = (   0.0000000   0.1250000  -0.0000000), wk =   0.0078125
        k(    7) = (   0.0000000   0.1250000   0.1250000), wk =   0.0078125
        k(    8) = (  -0.0000000   0.1250000   0.2500000), wk =   0.0078125
        k(    9) = (   0.0000000   0.1250000   0.3750000), wk =   0.0078125
        k(   10) = (  -0.0000000   0.1250000  -0.5000000), wk =   0.0078125
        k(   11) = (  -0.0000000   0.1250000  -0.3750000), wk =   0.0078125
        k(   12) = (  -0.0000000   0.1250000  -0.2500000), wk =   0.0078125
        k(   13) = (  -0.0000000   0.1250000  -0.1250000), wk =   0.0078125
        k(   14) = (   0.0000000   0.2500000  -0.0000000), wk =   0.0078125
        k(   15) = (   0.0000000   0.2500000   0.1250000), wk =   0.0078125
        k(   16) = (   0.0000000   0.2500000   0.2500000), wk =   0.0078125
        k(   17) = (   0.0000000   0.2500000   0.3750000), wk =   0.0078125
        k(   18) = (  -0.0000000   0.2500000  -0.5000000), wk =   0.0078125
        k(   19) = (  -0.0000000   0.2500000  -0.3750000), wk =   0.0078125
        k(   20) = (  -0.0000000   0.2500000  -0.2500000), wk =   0.0078125
        k(   21) = (  -0.0000000   0.2500000  -0.1250000), wk =   0.0078125
        k(   22) = (   0.0000000   0.3750000  -0.0000000), wk =   0.0078125
        k(   23) = (   0.0000000   0.3750000   0.1250000), wk =   0.0078125
        k(   24) = (  -0.0000000   0.3750000   0.2500000), wk =   0.0078125
        k(   25) = (   0.0000000   0.3750000   0.3750000), wk =   0.0078125
        k(   26) = (  -0.0000000   0.3750000  -0.5000000), wk =   0.0078125
        k(   27) = (  -0.0000000   0.3750000  -0.3750000), wk =   0.0078125
        k(   28) = (   0.0000000   0.3750000  -0.2500000), wk =   0.0078125
        k(   29) = (  -0.0000000   0.3750000  -0.1250000), wk =   0.0078125
        k(   30) = (  -0.0000000  -0.5000000   0.0000000), wk =   0.0039062
        k(   31) = (   0.0000000  -0.5000000   0.1250000), wk =   0.0078125
        k(   32) = (   0.0000000  -0.5000000   0.2500000), wk =   0.0078125
        k(   33) = (   0.0000000  -0.5000000   0.3750000), wk =   0.0078125
        k(   34) = (  -0.0000000  -0.5000000  -0.5000000), wk =   0.0039062
        k(   35) = (   0.1250000   0.0000000  -0.0000000), wk =   0.0078125
        k(   36) = (   0.1250000   0.0000000   0.1250000), wk =   0.0078125
        k(   37) = (   0.1250000   0.0000000   0.2500000), wk =   0.0078125
        k(   38) = (   0.1250000   0.0000000   0.3750000), wk =   0.0078125
        k(   39) = (   0.1250000   0.0000000  -0.5000000), wk =   0.0078125
        k(   40) = (   0.1250000   0.0000000  -0.3750000), wk =   0.0078125
        k(   41) = (   0.1250000   0.0000000  -0.2500000), wk =   0.0078125
        k(   42) = (   0.1250000   0.0000000  -0.1250000), wk =   0.0078125
        k(   43) = (   0.1250000   0.1250000  -0.0000000), wk =   0.0078125
        k(   44) = (   0.1250000   0.1250000   0.1250000), wk =   0.0078125
        k(   45) = (   0.1250000   0.1250000   0.2500000), wk =   0.0078125
        k(   46) = (   0.1250000   0.1250000   0.3750000), wk =   0.0078125
        k(   47) = (   0.1250000   0.1250000  -0.5000000), wk =   0.0078125
        k(   48) = (   0.1250000   0.1250000  -0.3750000), wk =   0.0078125
        k(   49) = (   0.1250000   0.1250000  -0.2500000), wk =   0.0078125
        k(   50) = (   0.1250000   0.1250000  -0.1250000), wk =   0.0078125
        k(   51) = (   0.1250000   0.2500000  -0.0000000), wk =   0.0078125
        k(   52) = (   0.1250000   0.2500000   0.1250000), wk =   0.0078125
        k(   53) = (   0.1250000   0.2500000   0.2500000), wk =   0.0078125
        k(   54) = (   0.1250000   0.2500000   0.3750000), wk =   0.0078125
        k(   55) = (   0.1250000   0.2500000  -0.5000000), wk =   0.0078125
        k(   56) = (   0.1250000   0.2500000  -0.3750000), wk =   0.0078125
        k(   57) = (   0.1250000   0.2500000  -0.2500000), wk =   0.0078125
        k(   58) = (   0.1250000   0.2500000  -0.1250000), wk =   0.0078125
        k(   59) = (   0.1250000   0.3750000  -0.0000000), wk =   0.0078125
        k(   60) = (   0.1250000   0.3750000   0.1250000), wk =   0.0078125
[...]
        k(  246) = (  -0.5000000   0.2500000  -0.2500000), wk =   0.0078125
        k(  247) = (  -0.5000000   0.2500000  -0.1250000), wk =   0.0078125
        k(  248) = (  -0.5000000   0.3750000  -0.0000000), wk =   0.0078125
        k(  249) = (  -0.5000000   0.3750000   0.1250000), wk =   0.0078125
        k(  250) = (  -0.5000000   0.3750000   0.2500000), wk =   0.0078125
        k(  251) = (  -0.5000000   0.3750000   0.3750000), wk =   0.0078125
        k(  252) = (  -0.5000000   0.3750000  -0.5000000), wk =   0.0078125
        k(  253) = (  -0.5000000   0.3750000  -0.3750000), wk =   0.0078125
        k(  254) = (  -0.5000000   0.3750000  -0.2500000), wk =   0.0078125
        k(  255) = (  -0.5000000   0.3750000  -0.1250000), wk =   0.0078125
        k(  256) = (  -0.5000000  -0.5000000   0.0000000), wk =   0.0039062
        k(  257) = (  -0.5000000  -0.5000000   0.1250000), wk =   0.0078125
        k(  258) = (  -0.5000000  -0.5000000   0.2500000), wk =   0.0078125
        k(  259) = (  -0.5000000  -0.5000000   0.3750000), wk =   0.0078125
        k(  260) = (  -0.5000000  -0.5000000  -0.5000000), wk =   0.0039062

     Check: negative core charge=   -0.000003

     Initial potential from superposition of free atoms

     starting charge   41.69964, renormalised to   42.00000
     Starting wfcs are   26 randomized atomic wfcs

     Self-consistent Calculation

[...]

     total energy              =    -651.13052104 Ry
     Harris-Foulkes estimate   =    -651.13052106 Ry
     estimated scf accuracy    <       0.00000007 Ry

     iteration # 10     ecut=    80.00 Ry     beta= 0.50
     Davidson diagonalization with overlap
     ethr =  1.56E-10,  avg # of iterations =  2.0

     End of self-consistent calculation

[...]

          k = 0.3734 0.0719-0.0778 (  3860 PWs)   bands (ev):

[...]

          k =-0.4979-0.8624-0.3110 (  3876 PWs)   bands (ev):

  -115.8859 -70.2449 -70.2439 -70.2433 -65.3467 -32.3508 -32.3335 -32.3259
    -9.7587  -9.3754   1.3667   1.9947   2.0296   2.3351   2.8043   2.8414
     3.8893   5.1319   5.1438   5.8519   6.0022

     occupation numbers
     1.0000   1.0000   1.0000   1.0000   1.0000   1.0000   1.0000   1.0000
     1.0000   1.0000   1.0000   1.0000   1.0000   1.0000   1.0000   1.0000
     1.0000   1.0000   1.0000   1.0000   1.0000

     highest occupied level (ev):     6.8627

!    total energy              =    -651.13052106 Ry
     Harris-Foulkes estimate   =    -651.13052105 Ry
     estimated scf accuracy    <          3.2E-10 Ry

     The total energy is the sum of the following terms:

     one-electron contribution =    -540.07660504 Ry
     hartree contribution      =     283.24631515 Ry
     xc contribution           =     -73.06702764 Ry
     ewald contribution        =    -321.23320353 Ry

     convergence has been achieved in  10 iterations

     Forces acting on atoms (cartesian axes, Ry/au):

     atom    1 type  3   force =     0.00000058    0.00000137   -0.01332956
     atom    2 type  3   force =    -0.00000015    0.00000095    0.00153855
     atom    3 type  2   force =     0.00000001   -0.00000084    0.00045716
     atom    4 type  1   force =    -0.00000044   -0.00000148    0.01133385
     The non-local contrib.  to forces
     atom    1 type  3   force =    -0.00000010   -0.00000102    0.14851218
     atom    2 type  3   force =     0.00000134    0.00000122   -0.13296629
     atom    3 type  2   force =     0.00000307   -0.00000329    0.11363514
     atom    4 type  1   force =     0.00000011   -0.00000158    0.00072254
     The ionic contribution  to forces
     atom    1 type  3   force =    -0.00000068    0.00002846   -7.74054372
     atom    2 type  3   force =    -0.00002637   -0.00000148    7.33221500
     atom    3 type  2   force =     0.00002707   -0.00001227    0.79823189
     atom    4 type  1   force =    -0.00000002   -0.00001471   -0.38990317
     The local contribution  to forces
     atom    1 type  3   force =     0.00000135   -0.00002607    7.58018850
     atom    2 type  3   force =     0.00002491    0.00000118   -7.19927446
     atom    3 type  2   force =    -0.00003018    0.00001476   -0.91138901
     atom    4 type  1   force =    -0.00000051    0.00001478    0.40056103
     The core correction contribution to forces
     atom    1 type  3   force =     0.00000002    0.00000001   -0.00150055
     atom    2 type  3   force =     0.00000000    0.00000000    0.00153462
     atom    3 type  2   force =     0.00000000    0.00000000    0.00000000
     atom    4 type  1   force =     0.00000000    0.00000000    0.00000000
     The Hubbard contrib.    to forces
     atom    1 type  3   force =     0.00000000    0.00000000    0.00000000
     atom    2 type  3   force =     0.00000000    0.00000000    0.00000000
     atom    3 type  2   force =     0.00000000    0.00000000    0.00000000
     atom    4 type  1   force =     0.00000000    0.00000000    0.00000000
     The SCF correction term to forces
     atom    1 type  3   force =     0.00000000    0.00000000    0.00000000
     atom    2 type  3   force =     0.00000000    0.00000000    0.00000000
     atom    3 type  2   force =     0.00000000    0.00000000    0.00000000
     atom    4 type  1   force =     0.00000000    0.00000000    0.00000000

     Total force =     0.000000     Total SCF correction =     0.000000

     Computing stress (Cartesian axis) and pressure

          total   stress  (Ry/bohr**3)                   (kbar)     P=    0.20
   0.00000155   0.00000000  -0.00000002          0.23      0.00     -0.00
   0.00000000   0.00000155  -0.00000000          0.00      0.23     -0.00
  -0.00000002  -0.00000000   0.00000101         -0.00     -0.00      0.15

     kinetic stress (kbar)  26358.52     -0.00     -0.00
                               -0.00  26358.52      0.00
                               -0.00      0.00  26350.76

     local   stress (kbar) -18603.81      0.02      0.02
                                0.02 -18603.84     -0.04
                                0.02     -0.04   2284.78

     nonloc. stress (kbar)   1762.31     -0.00      0.00
                               -0.00   1762.31      0.00
                                0.00      0.00   1763.67

     hartree stress (kbar)  46794.93     -0.01     -0.00
                               -0.01  46794.94      0.02
                               -0.00      0.02  36485.92

     exc-cor stress (kbar) -10414.57     -0.00      0.00
                               -0.00 -10414.57      0.00
                                0.00      0.00 -10413.98

     corecor stress (kbar)   -248.23     -0.00      0.00
                               -0.00   -248.23     -0.00
                                0.00     -0.00   -248.23

     ewald   stress (kbar) -45648.92     -0.01     -0.01
                               -0.01 -45648.90      0.03
                               -0.01      0.03 -56222.77

     hubbard stress (kbar)      0.00      0.00      0.00
                                0.00      0.00      0.00
                                0.00      0.00      0.00

     london  stress (kbar)      0.00      0.00      0.00
                                0.00      0.00      0.00
                                0.00      0.00      0.00

     DFT-D3  stress (kbar)      0.00      0.00      0.00
                                0.00      0.00      0.00
                                0.00      0.00      0.00

     XDM     stress (kbar)      0.00      0.00      0.00
                                0.00      0.00      0.00
                                0.00      0.00      0.00

     dft-nl  stress (kbar)      0.00      0.00      0.00
                                0.00      0.00      0.00
                                0.00      0.00      0.00

     TS-vdW  stress (kbar)      0.00      0.00      0.00
                                0.00      0.00      0.00
                                0.00      0.00      0.00

     Writing output data file ZnO.save/

     General routines

     Parallel routines

   This run was terminated on:  16:41:18   8Jun2022

   JOB DONE.