     Program PWSCF v.6.4.1 starts on 15Jun2022 at 23:25:58

     K-points division:     npool     =       4
     R & G space division:  proc/nbgrp/npool/nimage =      16
     Waiting for input...
     Reading input from standard input
Warning: card &IONS ignored
Warning: card   UPSCALE           = 100.D0, ignored
Warning: card / ignored
Warning: card &CELL ignored
Warning: card   CELL_DYNAMICS     = 'BFGS' ignored
Warning: card   PRESS_CONV_THR    = 0.5D0 ignored
Warning: card   CELL_DOFREE = 'ALL' ignored
Warning: card / ignored

     Current dimensions of program PWSCF are:
     Max number of different atomic species (ntypx) = 10
     Max number of k-points (npk) =  40000
     Max angular momentum in pseudopotentials (lmaxx) =  3

NOTICE: Bravais lattice has wrong number (10) of symmetries - symmetries are disabled

     bravais-lattice index     =            0
     lattice parameter (alat)  =       6.5310  a.u.
     unit-cell volume          =     303.4040 (a.u.)^3
     number of atoms/cell      =            4
     number of atomic types    =            3
     number of electrons       =        42.00
     number of Kohn-Sham states=           21
     kinetic-energy cutoff     =      80.0000  Ry
     charge density cutoff     =     600.0000  Ry
     convergence threshold     =      1.0E-06
     mixing beta               =       0.5000
     number of iterations used =            8  plain     mixing
     Exchange-correlation      = SLA  PW   PSX  PSC ( 1  4 10  8 0 0)

     celldm(1)=   6.530964  celldm(2)=   0.000000  celldm(3)=   0.000000
     celldm(4)=   0.000000  celldm(5)=   0.000000  celldm(6)=   0.000000

     crystal axes: (cart. coord. in units of alat)
               a(1) = (   1.000000   0.000000  -0.000000 )
               a(2) = (  -0.500000   0.866025  -0.000000 )
               a(3) = (   0.000000  -0.000000   1.257648 )

     reciprocal axes: (cart. coord. in units 2 pi/alat)
               b(1) = (  1.000000  0.577351  0.000000 )
               b(2) = ( -0.000000  1.154702  0.000000 )
               b(3) = (  0.000000  0.000000  0.795135 )

     PseudoPot. # 1 for Mg read from file:
     ./GBRV_PBEsol/mg_pbesol_v1.4.uspp.F.UPF
     MD5 check sum: 4059f37963cf5867752dbf5ab2400678
     Pseudo is Ultrasoft, Zval = 10.0
     Generated by new atomic code, or converted to UPF format
     Using radial grid of  821 points,  7 beta functions with:
                l(1) =   0
                l(2) =   0
                l(3) =   0
                l(4) =   1
                l(5) =   1
                l(6) =   2
                l(7) =   2
     Q(r) pseudized with  8 coefficients,  rinner =    1.200   1.200   1.200
                                                       1.200   1.200

     PseudoPot. # 2 for Zn read from file:
     ./GBRV_PBEsol/zn_pbesol_v1.uspp.F.UPF
     MD5 check sum: 7d8615e52efe7c1e2b1899de8658bae2
     Pseudo is Ultrasoft, Zval = 20.0
     Generated by new atomic code, or converted to UPF format
     Using radial grid of  943 points,  6 beta functions with:
                l(1) =   0
                l(2) =   0
                l(3) =   1
                l(4) =   1
                l(5) =   2
                l(6) =   2
     Q(r) pseudized with  8 coefficients,  rinner =    1.100   1.100   1.100
                                                       1.100   1.100

     PseudoPot. # 3 for O  read from file:
     ./GBRV_PBEsol/o_pbesol_v1.2.uspp.F.UPF
     MD5 check sum: 501638753501ef6325af9037351f7734
     Pseudo is Ultrasoft + core correction, Zval =  6.0
     Generated by new atomic code, or converted to UPF format
     Using radial grid of  737 points,  5 beta functions with:
                l(1) =   0
                l(2) =   0
                l(3) =   1
                l(4) =   1
                l(5) =   2
     Q(r) pseudized with  8 coefficients,  rinner =    0.900   0.900   0.900
                                                       0.900   0.900

     atomic species   valence    mass     pseudopotential
        Mg            10.00    24.30500     Mg( 1.00)
        Zn            20.00    65.38000     Zn( 1.00)
        O              6.00    15.99900     O ( 1.00)

     No symmetry found

                                    s                        frac. trans.

      isym =  1     identity

 cryst.   s( 1) = (     1          0          0      )
                  (     0          1          0      )
                  (     0          0          1      )

 cart.    s( 1) = (  1.0000000  0.0000000  0.0000000 )
                  (  0.0000000  1.0000000 -0.0000000 )
                  ( -0.0000000 -0.0000000  1.0000000 )

   Cartesian axes

     site n.     atom                  positions (alat units)
         1           O   tau(   1) = (   0.5000002   0.2886752   0.0092383  )
         2           O   tau(   2) = (   0.0000002   0.5773487   0.6380622  )
         3           Zn  tau(   3) = (   0.5000001   0.2886744   0.6086939  )
         4           Mg  tau(   4) = (  -0.0000001   0.5773503   1.2416487  )

   Crystallographic axes

     site n.     atom                  positions (cryst. coord.)
         1           O   tau(   1) = (  0.6666670  0.3333337  0.0073459  )
         2           O   tau(   2) = (  0.3333329  0.6666657  0.5073458  )
         3           Zn  tau(   3) = (  0.6666664  0.3333329  0.4839939  )
         4           Mg  tau(   4) = (  0.3333337  0.6666677  0.9872785  )

     number of k points=   260
                       cart. coord. in units 2pi/alat
        k(    1) = (   0.0000000   0.0000000   0.0000000), wk =   0.0039062
        k(    2) = (   0.0000000   0.0000001   0.0993919), wk =   0.0078125
        k(    3) = (   0.0000000   0.0000001   0.1987837), wk =   0.0078125
        k(    4) = (   0.0000000   0.0000002   0.2981756), wk =   0.0078125
        k(    5) = (  -0.0000000  -0.0000002  -0.3975675), wk =   0.0039062
        k(    6) = (  -0.0000000   0.1443377   0.0000000), wk =   0.0078125
        k(    7) = (  -0.0000000   0.1443378   0.0993919), wk =   0.0078125
        k(    8) = (  -0.0000000   0.1443378   0.1987838), wk =   0.0078125
        k(    9) = (  -0.0000000   0.1443379   0.2981756), wk =   0.0078125
        k(   10) = (  -0.0000000   0.1443375  -0.3975674), wk =   0.0078125
        k(   11) = (  -0.0000000   0.1443375  -0.2981756), wk =   0.0078125
        k(   12) = (  -0.0000000   0.1443376  -0.1987837), wk =   0.0078125
        k(   13) = (  -0.0000000   0.1443377  -0.0993918), wk =   0.0078125
        k(   14) = (  -0.0000000   0.2886754   0.0000001), wk =   0.0078125
        k(   15) = (  -0.0000000   0.2886755   0.0993919), wk =   0.0078125
        k(   16) = (  -0.0000000   0.2886755   0.1987838), wk =   0.0078125
        k(   17) = (  -0.0000000   0.2886756   0.2981757), wk =   0.0078125
        k(   18) = (  -0.0000000   0.2886752  -0.3975674), wk =   0.0078125
        k(   19) = (  -0.0000000   0.2886752  -0.2981755), wk =   0.0078125
        k(   20) = (  -0.0000000   0.2886753  -0.1987837), wk =   0.0078125
        k(   21) = (  -0.0000000   0.2886754  -0.0993918), wk =   0.0078125
        k(   22) = (  -0.0000001   0.4330131   0.0000001), wk =   0.0078125
        k(   23) = (  -0.0000000   0.4330132   0.0993920), wk =   0.0078125
        k(   24) = (  -0.0000000   0.4330132   0.1987838), wk =   0.0078125
        k(   25) = (  -0.0000000   0.4330133   0.2981757), wk =   0.0078125
        k(   26) = (  -0.0000001   0.4330129  -0.3975673), wk =   0.0078125
        k(   27) = (  -0.0000001   0.4330130  -0.2981755), wk =   0.0078125
        k(   28) = (  -0.0000001   0.4330130  -0.1987836), wk =   0.0078125
        k(   29) = (  -0.0000001   0.4330131  -0.0993917), wk =   0.0078125
        k(   30) = (   0.0000001  -0.5773508  -0.0000002), wk =   0.0039062
        k(   31) = (   0.0000001  -0.5773508   0.0993917), wk =   0.0078125
        k(   32) = (   0.0000001  -0.5773507   0.1987836), wk =   0.0078125
        k(   33) = (   0.0000001  -0.5773507   0.2981754), wk =   0.0078125
        k(   34) = (   0.0000001  -0.5773511  -0.3975676), wk =   0.0039062
        k(   35) = (   0.1250000   0.0721688   0.0000000), wk =   0.0078125
        k(   36) = (   0.1250000   0.0721689   0.0993919), wk =   0.0078125
        k(   37) = (   0.1250000   0.0721690   0.1987837), wk =   0.0078125
        k(   38) = (   0.1250000   0.0721690   0.2981756), wk =   0.0078125
        k(   39) = (   0.1250000   0.0721686  -0.3975674), wk =   0.0078125
        k(   40) = (   0.1250000   0.0721687  -0.2981756), wk =   0.0078125
        k(   41) = (   0.1250000   0.0721687  -0.1987837), wk =   0.0078125
        k(   42) = (   0.1250000   0.0721688  -0.0993919), wk =   0.0078125
        k(   43) = (   0.1250000   0.2165065   0.0000001), wk =   0.0078125
        k(   44) = (   0.1250000   0.2165066   0.0993919), wk =   0.0078125
        k(   45) = (   0.1250000   0.2165067   0.1987838), wk =   0.0078125
        k(   46) = (   0.1250000   0.2165067   0.2981756), wk =   0.0078125
        k(   47) = (   0.1250000   0.2165063  -0.3975674), wk =   0.0078125
        k(   48) = (   0.1250000   0.2165064  -0.2981755), wk =   0.0078125
        k(   49) = (   0.1250000   0.2165064  -0.1987837), wk =   0.0078125
        k(   50) = (   0.1250000   0.2165065  -0.0993918), wk =   0.0078125
        k(   51) = (   0.1250000   0.3608443   0.0000001), wk =   0.0078125
        k(   52) = (   0.1250000   0.3608443   0.0993920), wk =   0.0078125
        k(   53) = (   0.1250000   0.3608444   0.1987838), wk =   0.0078125
        k(   54) = (   0.1250000   0.3608444   0.2981757), wk =   0.0078125
        k(   55) = (   0.1249999   0.3608440  -0.3975674), wk =   0.0078125
        k(   56) = (   0.1249999   0.3608441  -0.2981755), wk =   0.0078125
        k(   57) = (   0.1249999   0.3608441  -0.1987836), wk =   0.0078125
        k(   58) = (   0.1250000   0.3608442  -0.0993918), wk =   0.0078125
        k(   59) = (   0.1249999   0.5051820   0.0000001), wk =   0.0078125
        k(   60) = (   0.1249999   0.5051820   0.0993920), wk =   0.0078125
[...]
        k(  246) = (  -0.5000000  -0.0000001  -0.1987837), wk =   0.0078125
        k(  247) = (  -0.5000000   0.0000000  -0.0993918), wk =   0.0078125
        k(  248) = (  -0.5000000   0.1443378   0.0000001), wk =   0.0078125
        k(  249) = (  -0.5000000   0.1443378   0.0993919), wk =   0.0078125
        k(  250) = (  -0.5000000   0.1443379   0.1987838), wk =   0.0078125
        k(  251) = (  -0.5000000   0.1443379   0.2981757), wk =   0.0078125
        k(  252) = (  -0.5000000   0.1443375  -0.3975674), wk =   0.0078125
        k(  253) = (  -0.5000000   0.1443376  -0.2981755), wk =   0.0078125
        k(  254) = (  -0.5000000   0.1443377  -0.1987837), wk =   0.0078125
        k(  255) = (  -0.5000000   0.1443377  -0.0993918), wk =   0.0078125
        k(  256) = (  -0.4999999  -0.8660262  -0.0000002), wk =   0.0039062
        k(  257) = (  -0.4999999  -0.8660261   0.0993917), wk =   0.0078125
        k(  258) = (  -0.4999999  -0.8660261   0.1987835), wk =   0.0078125
        k(  259) = (  -0.4999999  -0.8660260   0.2981754), wk =   0.0078125
        k(  260) = (  -0.4999999  -0.8660264  -0.3975677), wk =   0.0039062

                       cryst. coord.
        k(    1) = (   0.0000000   0.0000000   0.0000000), wk =   0.0039062
        k(    2) = (  -0.0000000  -0.0000000   0.1250000), wk =   0.0078125
        k(    3) = (  -0.0000000  -0.0000000   0.2500000), wk =   0.0078125
        k(    4) = (  -0.0000000  -0.0000000   0.3750000), wk =   0.0078125
        k(    5) = (   0.0000000   0.0000000  -0.5000000), wk =   0.0039062
        k(    6) = (  -0.0000000   0.1250000  -0.0000000), wk =   0.0078125
        k(    7) = (  -0.0000000   0.1250000   0.1250000), wk =   0.0078125
        k(    8) = (  -0.0000000   0.1250000   0.2500000), wk =   0.0078125
        k(    9) = (  -0.0000000   0.1250000   0.3750000), wk =   0.0078125
        k(   10) = (  -0.0000000   0.1250000  -0.5000000), wk =   0.0078125
        k(   11) = (   0.0000000   0.1250000  -0.3750000), wk =   0.0078125
        k(   12) = (  -0.0000000   0.1250000  -0.2500000), wk =   0.0078125
        k(   13) = (  -0.0000000   0.1250000  -0.1250000), wk =   0.0078125
        k(   14) = (  -0.0000000   0.2500000  -0.0000000), wk =   0.0078125
        k(   15) = (  -0.0000000   0.2500000   0.1250000), wk =   0.0078125
        k(   16) = (  -0.0000000   0.2500000   0.2500000), wk =   0.0078125
        k(   17) = (  -0.0000000   0.2500000   0.3750000), wk =   0.0078125
        k(   18) = (  -0.0000000   0.2500000  -0.5000000), wk =   0.0078125
        k(   19) = (  -0.0000000   0.2500000  -0.3750000), wk =   0.0078125
        k(   20) = (  -0.0000000   0.2500000  -0.2500000), wk =   0.0078125
        k(   21) = (  -0.0000000   0.2500000  -0.1250000), wk =   0.0078125
        k(   22) = (  -0.0000000   0.3750000   0.0000000), wk =   0.0078125
        k(   23) = (  -0.0000000   0.3750000   0.1250000), wk =   0.0078125
        k(   24) = (  -0.0000000   0.3750000   0.2500000), wk =   0.0078125
        k(   25) = (  -0.0000000   0.3750000   0.3750000), wk =   0.0078125
        k(   26) = (  -0.0000000   0.3750000  -0.5000000), wk =   0.0078125
        k(   27) = (  -0.0000000   0.3750000  -0.3750000), wk =   0.0078125
        k(   28) = (  -0.0000000   0.3750000  -0.2500000), wk =   0.0078125
        k(   29) = (  -0.0000000   0.3750000  -0.1250000), wk =   0.0078125
        k(   30) = (   0.0000000  -0.5000000   0.0000000), wk =   0.0039062
        k(   31) = (   0.0000000  -0.5000000   0.1250000), wk =   0.0078125
        k(   32) = (   0.0000000  -0.5000000   0.2500000), wk =   0.0078125
        k(   33) = (   0.0000000  -0.5000000   0.3750000), wk =   0.0078125
        k(   34) = (   0.0000000  -0.5000000  -0.5000000), wk =   0.0039062
        k(   35) = (   0.1250000   0.0000000  -0.0000000), wk =   0.0078125
        k(   36) = (   0.1250000   0.0000000   0.1250000), wk =   0.0078125
        k(   37) = (   0.1250000   0.0000000   0.2500000), wk =   0.0078125
        k(   38) = (   0.1250000   0.0000000   0.3750000), wk =   0.0078125
        k(   39) = (   0.1250000   0.0000000  -0.5000000), wk =   0.0078125
        k(   40) = (   0.1250000   0.0000000  -0.3750000), wk =   0.0078125
        k(   41) = (   0.1250000   0.0000000  -0.2500000), wk =   0.0078125
        k(   42) = (   0.1250000   0.0000000  -0.1250000), wk =   0.0078125
        k(   43) = (   0.1250000   0.1250000  -0.0000000), wk =   0.0078125
        k(   44) = (   0.1250000   0.1250000   0.1250000), wk =   0.0078125
        k(   45) = (   0.1250000   0.1250000   0.2500000), wk =   0.0078125
        k(   46) = (   0.1250000   0.1250000   0.3750000), wk =   0.0078125
        k(   47) = (   0.1250000   0.1250000  -0.5000000), wk =   0.0078125
        k(   48) = (   0.1250000   0.1250000  -0.3750000), wk =   0.0078125
        k(   49) = (   0.1250000   0.1250000  -0.2500000), wk =   0.0078125
        k(   50) = (   0.1250000   0.1250000  -0.1250000), wk =   0.0078125
        k(   51) = (   0.1250000   0.2500000  -0.0000000), wk =   0.0078125
        k(   52) = (   0.1250000   0.2500000   0.1250000), wk =   0.0078125
        k(   53) = (   0.1250000   0.2500000   0.2500000), wk =   0.0078125
        k(   54) = (   0.1250000   0.2500000   0.3750000), wk =   0.0078125
        k(   55) = (   0.1250000   0.2500000  -0.5000000), wk =   0.0078125
        k(   56) = (   0.1250000   0.2500000  -0.3750000), wk =   0.0078125
        k(   57) = (   0.1250000   0.2500000  -0.2500000), wk =   0.0078125
        k(   58) = (   0.1250000   0.2500000  -0.1250000), wk =   0.0078125
        k(   59) = (   0.1250000   0.3750000   0.0000000), wk =   0.0078125
        k(   60) = (   0.1250000   0.3750000   0.1250000), wk =   0.0078125
[...]
        k(  246) = (  -0.5000000   0.2500000  -0.2500000), wk =   0.0078125
        k(  247) = (  -0.5000000   0.2500000  -0.1250000), wk =   0.0078125
        k(  248) = (  -0.5000000   0.3750000   0.0000000), wk =   0.0078125
        k(  249) = (  -0.5000000   0.3750000   0.1250000), wk =   0.0078125
        k(  250) = (  -0.5000000   0.3750000   0.2500000), wk =   0.0078125
        k(  251) = (  -0.5000000   0.3750000   0.3750000), wk =   0.0078125
        k(  252) = (  -0.5000000   0.3750000  -0.5000000), wk =   0.0078125
        k(  253) = (  -0.5000000   0.3750000  -0.3750000), wk =   0.0078125
        k(  254) = (  -0.5000000   0.3750000  -0.2500000), wk =   0.0078125
        k(  255) = (  -0.5000000   0.3750000  -0.1250000), wk =   0.0078125
        k(  256) = (  -0.5000000  -0.5000000   0.0000000), wk =   0.0039062
        k(  257) = (  -0.5000000  -0.5000000   0.1250000), wk =   0.0078125
        k(  258) = (  -0.5000000  -0.5000000   0.2500000), wk =   0.0078125
        k(  259) = (  -0.5000000  -0.5000000   0.3750000), wk =   0.0078125
        k(  260) = (  -0.5000000  -0.5000000  -0.5000000), wk =   0.0039062

     Check: negative core charge=   -0.000003

     Initial potential from superposition of free atoms

     starting charge   41.69964, renormalised to   42.00000
     Starting wfcs are   26 randomized atomic wfcs

     Self-consistent Calculation

     iteration #  1     ecut=    80.00 Ry     beta= 0.50
     Davidson diagonalization with overlap
     ethr =  1.00E-02,  avg # of iterations =  2.0

     total energy              =    -650.65211909 Ry
     Harris-Foulkes estimate   =    -651.44206507 Ry
     estimated scf accuracy    <       1.18464274 Ry

[...]

     total energy              =    -651.12841103 Ry
     Harris-Foulkes estimate   =    -651.12840788 Ry
     estimated scf accuracy    <       0.00000934 Ry

     iteration #  7     ecut=    80.00 Ry     beta= 0.50
     Davidson diagonalization with overlap
     ethr =  2.22E-08,  avg # of iterations =  2.1

     End of self-consistent calculation

          k = 0.0000 0.0000 0.0000 (  3647 PWs)   bands (ev):

  -115.2629 -69.6261 -69.6261 -69.6155 -64.7239 -31.7138 -31.6939 -31.6939
    -9.9378  -8.5336   2.1113   2.1113   3.1123   3.3498   3.3498   3.6673
     5.8257   5.8257   7.0533   7.4205   7.4205

     occupation numbers
     1.0000   1.0000   1.0000   1.0000   1.0000   1.0000   1.0000   1.0000
     1.0000   1.0000   1.0000   1.0000   1.0000   1.0000   1.0000   1.0000
     1.0000   1.0000   1.0000   1.0000   1.0000

[...]

          k =-0.0000-0.0000-0.3976 (  3684 PWs)   bands (ev):

[...]

          k = 0.3750 0.0722-0.0994 (  3675 PWs)   bands (ev):

[...]

          k =-0.5000-0.8660-0.3976 (  3668 PWs)   bands (ev):

  -115.2629 -69.6270 -69.6264 -69.6154 -64.7231 -31.7136 -31.7126 -31.6981
    -9.1129  -8.6359   2.0371   2.1359   2.4527   2.8379   3.1337   3.5399
     4.7972   5.6789   6.0672   6.2385   7.7072

     occupation numbers
     1.0000   1.0000   1.0000   1.0000   1.0000   1.0000   1.0000   1.0000
     1.0000   1.0000   1.0000   1.0000   1.0000   1.0000   1.0000   1.0000
     1.0000   1.0000   1.0000   1.0000   1.0000

     highest occupied level (ev):     8.0295

!    total energy              =    -651.12841205 Ry
     Harris-Foulkes estimate   =    -651.12841206 Ry
     estimated scf accuracy    <       0.00000058 Ry

     The total energy is the sum of the following terms:

     one-electron contribution =    -522.67183145 Ry
     hartree contribution      =     275.57390292 Ry
     xc contribution           =     -73.10496959 Ry
     ewald contribution        =    -330.92551394 Ry

     convergence has been achieved in   7 iterations

     Forces acting on atoms (cartesian axes, Ry/au):

     atom    1 type  3   force =    -0.00000015   -0.00000038   -0.00749302
     atom    2 type  3   force =    -0.00000010   -0.00000063   -0.00537436
     atom    3 type  2   force =     0.00000102    0.00000480    0.00725153
     atom    4 type  1   force =    -0.00000076   -0.00000379    0.00561585
     The non-local contrib.  to forces
     atom    1 type  3   force =    -0.00000023   -0.00000255    0.10469452
     atom    2 type  3   force =     0.00000037    0.00000263    0.00471933
     atom    3 type  2   force =     0.00000166   -0.00000246    0.19413254
     atom    4 type  1   force =     0.00000091   -0.00000332    0.07793832
     The ionic contribution  to forces
     atom    1 type  3   force =    -0.00000372    0.00004807   -2.27661549
     atom    2 type  3   force =    -0.00001087   -0.00001272    0.58331480
     atom    3 type  2   force =     0.00000998    0.00000929    1.51802045
     atom    4 type  1   force =     0.00000461   -0.00004464    0.17528025
     The local contribution  to forces
     atom    1 type  3   force =     0.00000270   -0.00004584    2.16502527
     atom    2 type  3   force =     0.00001054    0.00001328   -0.59351169
     atom    3 type  2   force =    -0.00001188   -0.00000961   -1.70483324
     atom    4 type  1   force =    -0.00000516    0.00004630   -0.24770131
     The core correction contribution to forces
     atom    1 type  3   force =     0.00000000   -0.00000000   -0.00059729
     atom    2 type  3   force =    -0.00000000   -0.00000001    0.00023424
     atom    3 type  2   force =     0.00000000    0.00000000    0.00000000
     atom    4 type  1   force =     0.00000000    0.00000000    0.00000000
     The Hubbard contrib.    to forces
     atom    1 type  3   force =     0.00000000    0.00000000    0.00000000
     atom    2 type  3   force =     0.00000000    0.00000000    0.00000000
     atom    3 type  2   force =     0.00000000    0.00000000    0.00000000
     atom    4 type  1   force =     0.00000000    0.00000000    0.00000000
     The SCF correction term to forces
     atom    1 type  3   force =     0.00000000    0.00000000    0.00000000
     atom    2 type  3   force =     0.00000000    0.00000000    0.00000000
     atom    3 type  2   force =     0.00000000    0.00000000    0.00000000
     atom    4 type  1   force =     0.00000000    0.00000000    0.00000000

     Total force =     0.000000     Total SCF correction =     0.000000

     Computing stress (Cartesian axis) and pressure

          total   stress  (Ry/bohr**3)                   (kbar)     P=   10.37
   0.00007376   0.00000000  -0.00000000         10.85      0.00     -0.00
   0.00000000   0.00007376   0.00000001          0.00     10.85      0.00
  -0.00000000   0.00000001   0.00006391         -0.00      0.00      9.40

     kinetic stress (kbar)  27808.07      0.00     -0.00
                                0.00  27808.07      0.00
                               -0.00      0.00  27912.84

     local   stress (kbar)  -7266.42     -0.01      0.00
                               -0.01  -7266.55      0.02
                                0.00      0.02 -13889.48

     nonloc. stress (kbar)   1859.77     -0.00      0.00
                               -0.00   1859.77     -0.00
                                0.00     -0.00   1829.88

     hartree stress (kbar)  43658.45      0.00     -0.00
                                0.00  43658.50     -0.01
                               -0.00     -0.01  46294.71

     exc-cor stress (kbar) -11000.67      0.00      0.00
                                0.00 -11000.67     -0.00
                                0.00     -0.00 -11000.14

     corecor stress (kbar)   -262.00     -0.00     -0.00
                               -0.00   -262.00     -0.00
                               -0.00     -0.00   -262.19

     ewald   stress (kbar) -54786.34      0.01     -0.00
                                0.01 -54786.26     -0.01
                               -0.00     -0.01 -50876.23

     hubbard stress (kbar)      0.00      0.00      0.00
                                0.00      0.00      0.00
                                0.00      0.00      0.00

     london  stress (kbar)      0.00      0.00      0.00
                                0.00      0.00      0.00
                                0.00      0.00      0.00

     DFT-D3  stress (kbar)      0.00      0.00      0.00
                                0.00      0.00      0.00
                                0.00      0.00      0.00

     XDM     stress (kbar)      0.00      0.00      0.00
                                0.00      0.00      0.00
                                0.00      0.00      0.00

     dft-nl  stress (kbar)      0.00      0.00      0.00
                                0.00      0.00      0.00
                                0.00      0.00      0.00

     TS-vdW  stress (kbar)      0.00      0.00      0.00
                                0.00      0.00      0.00
                                0.00      0.00      0.00

     Writing output data file ZnO.save/

     General routines

     Parallel routines

   This run was terminated on:  23:26: 8  15Jun2022

   JOB DONE.