     Program PWSCF v.6.4.1 starts on  8Nov2021 at 19:33: 1

     K-points division:     npool     =       8
     R & G space division:  proc/nbgrp/npool/nimage =      16
     Waiting for input...
     Reading input from standard input
Warning: card &CELL ignored
Warning: card   CELL_DYNAMICS     = 'BFGS' ignored
Warning: card   PRESS_CONV_THR    = 0.5D0 ignored
Warning: card   CELL_DOFREE = 'ALL' ignored
Warning: card / ignored

     Current dimensions of program PWSCF are:
     Max number of different atomic species (ntypx) = 10
     Max number of k-points (npk) =  40000
     Max angular momentum in pseudopotentials (lmaxx) =  3

     bravais-lattice index     =            0
     lattice parameter (alat)  =      19.5020  a.u.
     unit-cell volume          =    5474.7522 (a.u.)^3
     number of atoms/cell      =           72
     number of atomic types    =            3
     number of electrons       =       856.00
     number of Kohn-Sham states=          514
     kinetic-energy cutoff     =      60.0000  Ry
     charge density cutoff     =     500.0000  Ry
     convergence threshold     =      1.0E-08
     mixing beta               =       0.5000
     number of iterations used =            8  plain     mixing
     Exchange-correlation      = SLA  PW   PSX  PSC ( 1  4 10  8 0 0)
     nstep                     =          200

     celldm(1)=  19.501964  celldm(2)=   0.000000  celldm(3)=   0.000000
     celldm(4)=   0.000000  celldm(5)=   0.000000  celldm(6)=   0.000000

     crystal axes: (cart. coord. in units of alat)
               a(1) = (   1.000000   0.000348   0.000004 )
               a(2) = (  -0.499697   0.866213   0.000164 )
               a(3) = (  -0.000014   0.000262   0.851956 )

     reciprocal axes: (cart. coord. in units 2 pi/alat)
               b(1) = (  0.999799  0.576759 -0.000161 )
               b(2) = ( -0.000402  1.154218 -0.000355 )
               b(3) = ( -0.000005 -0.000225  1.173769 )

     PseudoPot. # 1 for Zn read from file:
     ./GBRV_PBEsol/zn_pbesol_v1.uspp.F.UPF
     MD5 check sum: 7d8615e52efe7c1e2b1899de8658bae2
     Pseudo is Ultrasoft, Zval = 20.0
     Generated by new atomic code, or converted to UPF format
     Using radial grid of  943 points,  6 beta functions with:
                l(1) =   0
                l(2) =   0
                l(3) =   1
                l(4) =   1
                l(5) =   2
                l(6) =   2
     Q(r) pseudized with  8 coefficients,  rinner =    1.100   1.100   1.100
                                                       1.100   1.100

     PseudoPot. # 2 for O  read from file:
     ./GBRV_PBEsol/o_pbesol_v1.2.uspp.F.UPF
     MD5 check sum: 501638753501ef6325af9037351f7734
     Pseudo is Ultrasoft + core correction, Zval =  6.0
     Generated by new atomic code, or converted to UPF format
     Using radial grid of  737 points,  5 beta functions with:
                l(1) =   0
                l(2) =   0
                l(3) =   1
                l(4) =   1
                l(5) =   2
     Q(r) pseudized with  8 coefficients,  rinner =    0.900   0.900   0.900
                                                       0.900   0.900

     PseudoPot. # 3 for Mg read from file:
     ./GBRV_PBEsol/mg_pbesol_v1.4.uspp.F.UPF
     MD5 check sum: 4059f37963cf5867752dbf5ab2400678
     Pseudo is Ultrasoft, Zval = 10.0
     Generated by new atomic code, or converted to UPF format
     Using radial grid of  821 points,  7 beta functions with:
                l(1) =   0
                l(2) =   0
                l(3) =   0
                l(4) =   1
                l(5) =   1
                l(6) =   2
                l(7) =   2
     Q(r) pseudized with  8 coefficients,  rinner =    1.200   1.200   1.200
                                                       1.200   1.200

     atomic species   valence    mass     pseudopotential
        Zn            20.00    65.38000     Zn( 1.00)
        O              6.00    15.99900     O ( 1.00)
        Mg            10.00    24.30500     Mg( 1.00)

     No symmetry found

                                    s                        frac. trans.

      isym =  1     identity

 cryst.   s( 1) = (     1          0          0      )
                  (     0          1          0      )
                  (     0          0          1      )

 cart.    s( 1) = (  1.0000000 -0.0000000 -0.0000000 )
                  (  0.0000000  1.0000000 -0.0000000 )
                  (  0.0000000 -0.0000000  1.0000000 )

   Cartesian axes

     site n.     atom                  positions (alat units)
         1           Zn  tau(   1) = (   0.1671368   0.0963125   0.2175951  )
         2           Zn  tau(   2) = (   0.1678762   0.0953796   0.6402061  )
         3           Zn  tau(   3) = (   0.0001815   0.3855066   0.2160536  )
         4           Zn  tau(   4) = (  -0.0002015   0.3855665   0.6419066  )
         5           Zn  tau(   5) = (  -0.1658783   0.6742339   0.2158612  )
         6           Zn  tau(   6) = (  -0.1661924   0.6741196   0.6425328  )
         7           Zn  tau(   7) = (   0.4993211   0.0966005   0.2156422  )
         8           Zn  tau(   8) = (   0.4998066   0.0956424   0.6423047  )
         9           Zn  tau(   9) = (   0.3331589   0.3854961   0.2152772  )
        10           Mg  tau(  10) = (   0.3357361   0.3841047   0.6410628  )
        11           Mg  tau(  11) = (   0.1671232   0.6761418   0.2163306  )
        12           Zn  tau(  12) = (   0.1668095   0.6744120   0.6421421  )
        13           Zn  tau(  13) = (   0.8334048   0.0961456   0.2142602  )
        14           Zn  tau(  14) = (   0.8325569   0.0960990   0.6427648  )
        15           Mg  tau(  15) = (   0.6666247   0.3866180   0.2153779  )
        16           Zn  tau(  16) = (   0.6661973   0.3861234   0.6409926  )
        17           Zn  tau(  17) = (   0.4997216   0.6748709   0.2157827  )
        18           Mg  tau(  18) = (   0.5011162   0.6738765   0.6415199  )
        19           Mg  tau(  19) = (  -0.0010795   0.1926648   0.4286695  )
        20           Zn  tau(  20) = (   0.0000433   0.1920493   0.0020017  )
        21           Zn  tau(  21) = (  -0.1653863   0.4811137   0.4282083  )
        22           Zn  tau(  22) = (  -0.1669072   0.4806734   0.0033435  )
        23           Zn  tau(  23) = (  -0.3320112   0.7702414   0.4296263  )
        24           Zn  tau(  24) = (  -0.3326296   0.7705130   0.0031454  )
        25           Zn  tau(  25) = (   0.3338081   0.1924209   0.4290797  )
        26           Zn  tau(  26) = (   0.3333626   0.1919208   0.0006197  )
        27           Mg  tau(  27) = (   0.1656181   0.4816311   0.4299164  )
        28           Mg  tau(  28) = (   0.1661746   0.4808904   0.0038464  )
        29           Zn  tau(  29) = (   0.0004243   0.7707073   0.4271649  )
        30           Zn  tau(  30) = (   0.0000103   0.7706353   0.0024723  )
        31           Zn  tau(  31) = (   0.6668095   0.1921289   0.4288622  )
        32           Mg  tau(  32) = (   0.6664150   0.1920805   0.0048935  )
        33           Zn  tau(  33) = (   0.4996692   0.4814241   0.4268901  )
        34           Zn  tau(  34) = (   0.5004526   0.4810049   0.0017553  )
        35           Zn  tau(  35) = (   0.3324539   0.7716356   0.4304296  )
        36           Zn  tau(  36) = (   0.3336425   0.7705842   0.0033100  )
        37           O   tau(  37) = (   0.1663977   0.0964937   0.0031802  )
        38           O   tau(  38) = (   0.1666500   0.0965799   0.4286518  )
        39           O   tau(  39) = (  -0.0000432   0.3843795   0.0020386  )
        40           O   tau(  40) = (   0.0003926   0.3848388   0.4281905  )
        41           O   tau(  41) = (  -0.1661710   0.6733973   0.0033804  )
        42           O   tau(  42) = (  -0.1659387   0.6737563   0.4296086  )
        43           O   tau(  43) = (   0.4999664   0.0962186   0.0030197  )
        44           O   tau(  44) = (   0.5002137   0.0967180   0.4290619  )
        45           O   tau(  45) = (   0.3331574   0.3851364   0.0006569  )
        46           O   tau(  46) = (   0.3326041   0.3852753   0.4298988  )
        47           O   tau(  47) = (   0.1668710   0.6735657   0.0038830  )
        48           O   tau(  48) = (   0.1667821   0.6737283   0.4271469  )
        49           O   tau(  49) = (   0.8334994   0.0965929   0.0023467  )
        50           O   tau(  50) = (   0.8327255   0.0969061   0.4288448  )
        51           O   tau(  51) = (   0.6666879   0.3845813   0.0049301  )
        52           O   tau(  52) = (   0.6669040   0.3851899   0.4268723  )
        53           O   tau(  53) = (   0.5003817   0.6738737   0.0017923  )
        54           O   tau(  54) = (   0.5001834   0.6746803   0.4304117  )
        55           O   tau(  55) = (  -0.0000892   0.1927554   0.2176128  )
        56           O   tau(  56) = (   0.0002511   0.1922051   0.6402241  )
        57           O   tau(  57) = (  -0.1662345   0.4818152   0.2160714  )
        58           O   tau(  58) = (  -0.1669729   0.4812719   0.6419241  )
        59           O   tau(  59) = (  -0.3331389   0.7698739   0.2158789  )
        60           O   tau(  60) = (  -0.3326732   0.7699690   0.6425504  )
        61           O   tau(  61) = (   0.3332328   0.1935340   0.2156602  )
        62           O   tau(  62) = (   0.3336667   0.1921099   0.6423224  )
        63           O   tau(  63) = (   0.1668171   0.4829657   0.2152951  )
        64           O   tau(  64) = (   0.1680389   0.4811124   0.6410808  )
        65           O   tau(  65) = (   0.0000873   0.7708774   0.2163481  )
        66           O   tau(  66) = (   0.0006117   0.7698242   0.6421598  )
        67           O   tau(  67) = (   0.6665723   0.1933609   0.2142780  )
        68           O   tau(  68) = (   0.6662341   0.1934331   0.6427828  )
        69           O   tau(  69) = (   0.4992843   0.4823297   0.2153956  )
        70           O   tau(  70) = (   0.5006845   0.4817794   0.6410103  )
        71           O   tau(  71) = (   0.3339183   0.7708182   0.2158003  )
        72           O   tau(  72) = (   0.3336029   0.7698460   0.6415375  )

   Crystallographic axes

     site n.     atom                  positions (cryst. coord.)
         1           Zn  tau(   1) = (  0.2226174  0.1110211  0.2553839  )
         2           Zn  tau(   2) = (  0.2227507  0.1097939  0.7514320  )
         3           Zn  tau(   3) = (  0.2224911  0.4448818  0.2535104  )
         4           Zn  tau(   4) = (  0.2220744  0.4447999  0.7533635  )
         5           Zn  tau(   5) = (  0.2229908  0.7782030  0.2532204  )
         6           Zn  tau(   6) = (  0.2225423  0.7779197  0.7540344  )
         7           Zn  tau(   7) = (  0.5549014  0.1112206  0.2530901  )
         8           Zn  tau(   8) = (  0.5547657  0.1099630  0.7538936  )
         9           Zn  tau(   9) = (  0.5553957  0.4447361  0.2525975  )
        10           Mg  tau(  10) = (  0.5571015  0.4429778  0.7523718  )
        11           Mg  tau(  11) = (  0.5570257  0.7802711  0.2537694  )
        12           Zn  tau(  12) = (  0.5556461  0.7781234  0.7535742  )
[...]
     atom   27 type  3   force =     0.00000000    0.00000000    0.00000000
     atom   28 type  3   force =     0.00000000    0.00000000    0.00000000
     atom   29 type  1   force =     0.00000000    0.00000000    0.00000000
     atom   30 type  1   force =     0.00000000    0.00000000    0.00000000
     atom   31 type  1   force =     0.00000000    0.00000000    0.00000000
     atom   32 type  3   force =     0.00000000    0.00000000    0.00000000
     atom   33 type  1   force =     0.00000000    0.00000000    0.00000000
     atom   34 type  1   force =     0.00000000    0.00000000    0.00000000
     atom   35 type  1   force =     0.00000000    0.00000000    0.00000000
     atom   36 type  1   force =     0.00000000    0.00000000    0.00000000
     atom   37 type  2   force =     0.00000000    0.00000000    0.00000000
     atom   38 type  2   force =     0.00000000    0.00000000    0.00000000
     atom   39 type  2   force =     0.00000000    0.00000000    0.00000000
     atom   40 type  2   force =     0.00000000    0.00000000    0.00000000
     atom   41 type  2   force =     0.00000000    0.00000000    0.00000000
     atom   42 type  2   force =     0.00000000    0.00000000    0.00000000
     atom   43 type  2   force =     0.00000000    0.00000000    0.00000000
     atom   44 type  2   force =     0.00000000    0.00000000    0.00000000
     atom   45 type  2   force =     0.00000000    0.00000000    0.00000000
     atom   46 type  2   force =     0.00000000    0.00000000    0.00000000
     atom   47 type  2   force =     0.00000000    0.00000000    0.00000000
     atom   48 type  2   force =     0.00000000    0.00000000    0.00000000
     atom   49 type  2   force =     0.00000000    0.00000000    0.00000000
     atom   50 type  2   force =     0.00000000    0.00000000    0.00000000
     atom   51 type  2   force =     0.00000000    0.00000000    0.00000000
     atom   52 type  2   force =     0.00000000    0.00000000    0.00000000
     atom   53 type  2   force =     0.00000000    0.00000000    0.00000000
     atom   54 type  2   force =     0.00000000    0.00000000    0.00000000
     atom   55 type  2   force =     0.00000000    0.00000000    0.00000000
     atom   56 type  2   force =     0.00000000    0.00000000    0.00000000
     atom   57 type  2   force =     0.00000000    0.00000000    0.00000000
     atom   58 type  2   force =     0.00000000    0.00000000    0.00000000
     atom   59 type  2   force =     0.00000000    0.00000000    0.00000000
     atom   60 type  2   force =     0.00000000    0.00000000    0.00000000
     atom   61 type  2   force =     0.00000000    0.00000000    0.00000000
     atom   62 type  2   force =     0.00000000    0.00000000    0.00000000
     atom   63 type  2   force =     0.00000000    0.00000000    0.00000000
     atom   64 type  2   force =     0.00000000    0.00000000    0.00000000
     atom   65 type  2   force =     0.00000000    0.00000000    0.00000000
     atom   66 type  2   force =     0.00000000    0.00000000    0.00000000
     atom   67 type  2   force =     0.00000000    0.00000000    0.00000000
     atom   68 type  2   force =     0.00000000    0.00000000    0.00000000
     atom   69 type  2   force =     0.00000000    0.00000000    0.00000000
     atom   70 type  2   force =     0.00000000    0.00000000    0.00000000
     atom   71 type  2   force =     0.00000000    0.00000000    0.00000000
     atom   72 type  2   force =     0.00000000    0.00000000    0.00000000
     The SCF correction term to forces
     atom    1 type  1   force =     0.00000486   -0.00000450    0.00000000
     atom    2 type  1   force =     0.00000337   -0.00000343    0.00000000
     atom    3 type  1   force =    -0.00000462   -0.00000324    0.00000000
     atom    4 type  1   force =    -0.00000248   -0.00000492    0.00000000
     atom    5 type  1   force =    -0.00000681    0.00000387    0.00000000
     atom    6 type  1   force =    -0.00000949    0.00000362    0.00000000
     atom    7 type  1   force =    -0.00000759    0.00000181    0.00000000
     atom    8 type  1   force =    -0.00000778    0.00000846    0.00000000
     atom    9 type  1   force =     0.00000674   -0.00000596    0.00000000
     atom   10 type  3   force =     0.00000085   -0.00000061    0.00000000
     atom   11 type  3   force =     0.00000037    0.00000069    0.00000000
     atom   12 type  1   force =     0.00000441    0.00000472    0.00000000
     atom   13 type  1   force =    -0.00000060    0.00000071    0.00000000
     atom   14 type  1   force =    -0.00000220    0.00000140    0.00000000
     atom   15 type  3   force =    -0.00000122   -0.00000037    0.00000000
     atom   16 type  1   force =    -0.00000632   -0.00000289    0.00000000
     atom   17 type  1   force =     0.00000728   -0.00000075    0.00000000
     atom   18 type  3   force =     0.00000039   -0.00000001    0.00000000
     atom   19 type  3   force =     0.00000001    0.00000041    0.00000000
     atom   20 type  1   force =    -0.00001132    0.00000676    0.00000000
     atom   21 type  1   force =    -0.00000252   -0.00000396    0.00000000
     atom   22 type  1   force =    -0.00000297   -0.00000377    0.00000000
     atom   23 type  1   force =     0.00000710   -0.00000473    0.00000000
     atom   24 type  1   force =     0.00000624   -0.00000581    0.00000000
     atom   25 type  1   force =     0.00001063    0.00000001    0.00000000
     atom   26 type  1   force =     0.00001055    0.00000234    0.00000000
     atom   27 type  3   force =    -0.00000011    0.00000009    0.00000000
     atom   28 type  3   force =     0.00000042    0.00000017    0.00000000
     atom   29 type  1   force =    -0.00000036    0.00000513    0.00000000
     atom   30 type  1   force =     0.00000133    0.00000621    0.00000000
     atom   31 type  1   force =    -0.00000394    0.00000096    0.00000000
     atom   32 type  3   force =    -0.00000083    0.00000077    0.00000000
     atom   33 type  1   force =     0.00000690   -0.00000742    0.00000000
     atom   34 type  1   force =     0.00000799   -0.00000650    0.00000000
     atom   35 type  1   force =    -0.00000573    0.00000354    0.00000000
     atom   36 type  1   force =    -0.00000568    0.00000167    0.00000000
     atom   37 type  2   force =    -0.00000061    0.00000015    0.00000000
     atom   38 type  2   force =    -0.00000053    0.00000040    0.00000000
     atom   39 type  2   force =     0.00000097    0.00000032    0.00000000
     atom   40 type  2   force =     0.00000076   -0.00000008    0.00000000
     atom   41 type  2   force =     0.00000017   -0.00000023    0.00000000
     atom   42 type  2   force =    -0.00000019    0.00000034    0.00000000
     atom   43 type  2   force =    -0.00000104    0.00000118    0.00000000
     atom   44 type  2   force =    -0.00000089    0.00000041    0.00000000
     atom   45 type  2   force =     0.00000098    0.00000063    0.00000000
     atom   46 type  2   force =     0.00000095   -0.00000016    0.00000000
     atom   47 type  2   force =     0.00000048    0.00000058    0.00000000
     atom   48 type  2   force =     0.00000083    0.00000018    0.00000000
     atom   49 type  2   force =    -0.00000118    0.00000020    0.00000000
     atom   50 type  2   force =    -0.00000023    0.00000034    0.00000000
     atom   51 type  2   force =     0.00000083   -0.00000103    0.00000000
     atom   52 type  2   force =     0.00000010   -0.00000056    0.00000000
     atom   53 type  2   force =     0.00000068   -0.00000047    0.00000000
     atom   54 type  2   force =     0.00000086   -0.00000014    0.00000000
     atom   55 type  2   force =    -0.00000125    0.00000019    0.00000000
     atom   56 type  2   force =    -0.00000104    0.00000026    0.00000000
     atom   57 type  2   force =    -0.00000085   -0.00000016    0.00000000
     atom   58 type  2   force =    -0.00000023   -0.00000061    0.00000000
     atom   59 type  2   force =     0.00000090   -0.00000018    0.00000000
     atom   60 type  2   force =    -0.00000021   -0.00000030    0.00000000
     atom   61 type  2   force =    -0.00000035   -0.00000019    0.00000000
     atom   62 type  2   force =    -0.00000049    0.00000099    0.00000000
     atom   63 type  2   force =     0.00000058    0.00000035    0.00000000
     atom   64 type  2   force =     0.00000143    0.00000018    0.00000000
     atom   65 type  2   force =     0.00000022    0.00000010    0.00000000
     atom   66 type  2   force =    -0.00000043    0.00000075    0.00000000
     atom   67 type  2   force =    -0.00000212    0.00000019    0.00000000
     atom   68 type  2   force =    -0.00000141   -0.00000086    0.00000000
     atom   69 type  2   force =     0.00000143   -0.00000087    0.00000000
     atom   70 type  2   force =     0.00000096   -0.00000119    0.00000000
     atom   71 type  2   force =     0.00000019   -0.00000021    0.00000000
     atom   72 type  2   force =     0.00000071   -0.00000035    0.00000000

     Total force =     0.000074     Total SCF correction =     0.000042
     SCF correction compared to forces is large: reduce conv_thr to get better values

     Computing stress (Cartesian axis) and pressure

          total   stress  (Ry/bohr**3)                   (kbar)     P=    1.65
   0.00001254  -0.00000002   0.00000000          1.85     -0.00      0.00
  -0.00000002   0.00001255  -0.00000000         -0.00      1.85     -0.00
   0.00000000  -0.00000000   0.00000862          0.00     -0.00      1.27

     kinetic stress (kbar)  32012.74      0.72      0.07
                                0.72  32012.40     -0.11
                                0.07     -0.11  32235.42

     local   stress (kbar)   1388.07   -810.09   -593.84
                             -810.09    410.85   -104.50
                             -593.84   -104.50 -25489.91

     nonloc. stress (kbar)   -157.60     -0.29      0.01
                               -0.29   -156.49      0.12
                                0.01      0.12   -230.85

     hartree stress (kbar)  53853.18    401.02    291.71
                              401.02  54312.01     46.34
                              291.71     46.34  66566.84

     exc-cor stress (kbar) -13121.92      0.01     -0.00
                                0.01 -13121.91      0.00
                               -0.00      0.00 -13122.93

     corecor stress (kbar)   -261.15     -0.00     -0.00
                               -0.00   -261.15      0.00
                               -0.00      0.00   -261.53

     ewald   stress (kbar) -73711.47    408.63    302.05
                              408.63 -73193.86     58.15
                              302.05     58.15 -59695.77

     hubbard stress (kbar)      0.00      0.00      0.00
                                0.00      0.00      0.00
                                0.00      0.00      0.00

     london  stress (kbar)      0.00      0.00      0.00
                                0.00      0.00      0.00
                                0.00      0.00      0.00

     DFT-D3  stress (kbar)      0.00      0.00      0.00
                                0.00      0.00      0.00
                                0.00      0.00      0.00

     XDM     stress (kbar)      0.00      0.00      0.00
                                0.00      0.00      0.00
                                0.00      0.00      0.00

     dft-nl  stress (kbar)      0.00      0.00      0.00
                                0.00      0.00      0.00
                                0.00      0.00      0.00

     TS-vdW  stress (kbar)      0.00      0.00      0.00
                                0.00      0.00      0.00
                                0.00      0.00      0.00

     Message from routine bfgs:
     history already reset at previous step: stopping

     bfgs converged in   4 scf cycles and   3 bfgs steps
     (criteria: energy <  1.0E-07 Ry, force <  1.0E-06 Ry/Bohr)

     End of BFGS Geometry Optimization

     Final energy   =  -15079.6104724070 Ry
Begin final coordinates

ATOMIC_POSITIONS (crystal)
Zn       0.222618040   0.111020553   0.255383916    1   1   0
Zn       0.222751151   0.109793621   0.751431959    1   1   0
Zn       0.222491200   0.444881538   0.253510403    1   1   0
Zn       0.222073800   0.444799889   0.753363513    1   1   0
Zn       0.222990563   0.778203713   0.253220448    1   1   0
Zn       0.222543276   0.777920494   0.754034399    1   1   0
Zn       0.554904275   0.111221542   0.253090058    1   1   0
Zn       0.554768385   0.109962463   0.753893598    1   1   0
Zn       0.555395329   0.444736334   0.252597536    1   1   0
Mg       0.557100441   0.442976852   0.752371771    1   1   0
Mg       0.557025200   0.780270935   0.253769413    1   1   0
Zn       0.555645101   0.778122228   0.753574177    1   1   0
Zn       0.888656414   0.110561856   0.251466488    1   1   0
Zn       0.887712989   0.110356769   0.754431924    1   1   0
Mg       0.889440912   0.445897040   0.252713938    1   1   0
Zn       0.888660526   0.445175724   0.752287375    1   1   0
Zn       0.888824133   0.778671070   0.253124988    1   1   0
Mg       0.889577806   0.777372081   0.752842405    1   1   0
Mg       0.109973180   0.222223721   0.503115735    1   1   0
Zn       0.110811083   0.221664718   0.002306361    1   1   0
Zn       0.112064806   0.555225082   0.502510313    1   1   0
Zn       0.110358674   0.554868935   0.003817236    1   1   0
Zn       0.112229580   0.889007653   0.504110573    1   1   0
Zn       0.111836397   0.889473576   0.003520437    1   1   0
Zn       0.444652324   0.221808405   0.503595686    1   1   0
Zn       0.443986904   0.221382727   0.000682707    1   1   0
Mg       0.443300774   0.555688687   0.504513605    1   1   0
Mg       0.443496727   0.554983173   0.004405903    1   1   0
Zn       0.444867599   0.889412258   0.501219763    1   1   0
Zn       0.444479853   0.889479113   0.002728737    1   1   0
Zn       0.777419565   0.221338810   0.503338888    1   1   0
Mg       0.777065909   0.221433387   0.005697558    1   1   0
Zn       0.777165094   0.555316141   0.500959864    1   1   0
Zn       0.777773763   0.554983580   0.001949804    1   1   0
Zn       0.777364648   0.890348471   0.505049958    1   1   0
Zn       0.778015403   0.889286183   0.003710401    1   1   0
O        0.222018024   0.111306144   0.003710406    1   1   0
O        0.222252231   0.111253827   0.503115768    1   1   0
O        0.221648980   0.443655976   0.002306466    1   1   0
O        0.222281845   0.444035839   0.502510243    1   1   0
O        0.222249211   0.777313974   0.003817297    1   1   0
O        0.222620460   0.777575842   0.504110708    1   1   0
O        0.555360768   0.110854185   0.003520492    1   1   0
O        0.555828625   0.111280356   0.503595491    1   1   0
O        0.555220839   0.444396478   0.000682921    1   1   0
O        0.554678861   0.444405107   0.504513716    1   1   0
O        0.555321507   0.777372826   0.004405541    1   1   0
O        0.555258288   0.777411070   0.501219626    1   1   0
O        0.889043446   0.111152409   0.002728825    1   1   0
O        0.888379667   0.111363156   0.503339004    1   1   0
O        0.888362779   0.443622486   0.005697239    1   1   0
O        0.888862335   0.444173307   0.500959762    1   1   0
O        0.888943122   0.777595664   0.001949929    1   1   0
O        0.889140744   0.778373951   0.505049998    1   1   0
O        0.111050700   0.222404533   0.255383878    1   1   0
O        0.111005053   0.221619158   0.751432029    1   1   0
O        0.111656565   0.556110200   0.253510385    1   1   0
O        0.110535122   0.555331867   0.753363257    1   1   0
O        0.110924629   0.888660223   0.253220537    1   1   0
O        0.111378121   0.888618390   0.754034313    1   1   0
O        0.444755147   0.223170287   0.253090249    1   1   0
O        0.444298191   0.221373029   0.753893465    1   1   0
O        0.445303068   0.557303478   0.252597407    1   1   0
O        0.445386676   0.555013332   0.752371921    1   1   0
O        0.444662790   0.889684829   0.253769523    1   1   0
O        0.444512619   0.888316139   0.753574316    1   1   0
O        0.777927826   0.222835805   0.251466301    1   1   0
O        0.777563230   0.222769233   0.754431934    1   1   0
O        0.777335576   0.556436881   0.252713893    1   1   0
O        0.778351185   0.555649706   0.752287492    1   1   0
O        0.778392830   0.889482036   0.253124951    1   1   0
O        0.777447112   0.888208960   0.752842344    1   1   0
End final coordinates

     Writing output data file ZnO.save/

     General routines

     Parallel routines

   This run was terminated on:  20: 8:18   8Nov2021

   JOB DONE.