     Program PWSCF v.6.4.1 starts on  8Nov2021 at 13:38:37

     K-points division:     npool     =       8
     R & G space division:  proc/nbgrp/npool/nimage =      16
     Waiting for input...
     Reading input from standard input
Warning: card &IONS ignored
Warning: card   UPSCALE           = 100.D0, ignored
Warning: card / ignored
Warning: card &CELL ignored
Warning: card   CELL_DYNAMICS     = 'BFGS' ignored
Warning: card   PRESS_CONV_THR    = 0.5D0 ignored
Warning: card   CELL_DOFREE = 'ALL' ignored
Warning: card / ignored

     Current dimensions of program PWSCF are:
     Max number of different atomic species (ntypx) = 10
     Max number of k-points (npk) =  40000
     Max angular momentum in pseudopotentials (lmaxx) =  3

     bravais-lattice index     =            0
     lattice parameter (alat)  =      18.4233  a.u.
     unit-cell volume          =    5758.9404 (a.u.)^3
     number of atoms/cell      =           72
     number of atomic types    =            3
     number of electrons       =       796.00
     number of Kohn-Sham states=          478
     kinetic-energy cutoff     =      60.0000  Ry
     charge density cutoff     =     500.0000  Ry
     convergence threshold     =      1.0E-08
     mixing beta               =       0.5000
     number of iterations used =            8  plain     mixing
     Exchange-correlation      = SLA  PW   PSX  PSC ( 1  4 10  8 0 0)

     celldm(1)=  18.423338  celldm(2)=   0.000000  celldm(3)=   0.000000
     celldm(4)=   0.000000  celldm(5)=   0.000000  celldm(6)=   0.000000

     crystal axes: (cart. coord. in units of alat)
               a(1) = (   1.000000   0.000410  -0.000414 )
               a(2) = (  -0.499644   0.866141   0.000428 )
               a(3) = (  -0.000442   0.000273   1.063032 )

     reciprocal axes: (cart. coord. in units 2 pi/alat)
               b(1) = (  0.999764  0.576725  0.000267 )
               b(2) = ( -0.000473  1.154273 -0.000296 )
               b(3) = (  0.000389 -0.000240  0.940706 )

     PseudoPot. # 1 for Zn read from file:
     ./GBRV_PBEsol/zn_pbesol_v1.uspp.F.UPF
     MD5 check sum: 7d8615e52efe7c1e2b1899de8658bae2
     Pseudo is Ultrasoft, Zval = 20.0
     Generated by new atomic code, or converted to UPF format
     Using radial grid of  943 points,  6 beta functions with:
                l(1) =   0
                l(2) =   0
                l(3) =   1
                l(4) =   1
                l(5) =   2
                l(6) =   2
     Q(r) pseudized with  8 coefficients,  rinner =    1.100   1.100   1.100
                                                       1.100   1.100

     PseudoPot. # 2 for O  read from file:
     ./GBRV_PBEsol/o_pbesol_v1.2.uspp.F.UPF
     MD5 check sum: 501638753501ef6325af9037351f7734
     Pseudo is Ultrasoft + core correction, Zval =  6.0
     Generated by new atomic code, or converted to UPF format
     Using radial grid of  737 points,  5 beta functions with:
                l(1) =   0
                l(2) =   0
                l(3) =   1
                l(4) =   1
                l(5) =   2
     Q(r) pseudized with  8 coefficients,  rinner =    0.900   0.900   0.900
                                                       0.900   0.900

     PseudoPot. # 3 for Mg read from file:
     ./GBRV_PBEsol/mg_pbesol_v1.4.uspp.F.UPF
     MD5 check sum: 4059f37963cf5867752dbf5ab2400678
     Pseudo is Ultrasoft, Zval = 10.0
     Generated by new atomic code, or converted to UPF format
     Using radial grid of  821 points,  7 beta functions with:
                l(1) =   0
                l(2) =   0
                l(3) =   0
                l(4) =   1
                l(5) =   1
                l(6) =   2
                l(7) =   2
     Q(r) pseudized with  8 coefficients,  rinner =    1.200   1.200   1.200
                                                       1.200   1.200

     atomic species   valence    mass     pseudopotential
        Zn            20.00    65.38000     Zn( 1.00)
        O              6.00    15.99900     O ( 1.00)
        Mg            10.00    24.30500     Mg( 1.00)

     No symmetry found

                                    s                        frac. trans.

      isym =  1     identity

 cryst.   s( 1) = (     1          0          0      )
                  (     0          1          0      )
                  (     0          0          1      )

 cart.    s( 1) = (  1.0000000 -0.0000000 -0.0000000 )
                  (  0.0000000  1.0000000 -0.0000000 )
                  (  0.0000000  0.0000000  1.0000000 )

   Cartesian axes

     site n.     atom                  positions (alat units)
         1           Zn  tau(   1) = (   0.1663494   0.0972122   0.2689376  )
         2           Zn  tau(   2) = (   0.1675627   0.0961284   0.8000436  )
         3           Zn  tau(   3) = (   0.0018249   0.3862541   0.2693608  )
         4           Zn  tau(   4) = (  -0.0009773   0.3854074   0.7987945  )
         5           Zn  tau(   5) = (  -0.1663160   0.6732740   0.2677230  )
         6           Mg  tau(   6) = (  -0.1656342   0.6764904   0.8035608  )
         7           Zn  tau(   7) = (   0.5009047   0.0965624   0.2671851  )
         8           Zn  tau(   8) = (   0.4994210   0.0973175   0.8020508  )
         9           Mg  tau(   9) = (   0.3329584   0.3860000   0.2709432  )
        10           Mg  tau(  10) = (   0.3333912   0.3850441   0.7976721  )
        11           Mg  tau(  11) = (   0.1650912   0.6728386   0.2689707  )
        12           Zn  tau(  12) = (   0.1670346   0.6754229   0.8006242  )
        13           Mg  tau(  13) = (   0.8338061   0.0980738   0.2692511  )
        14           Mg  tau(  14) = (   0.8343321   0.0965978   0.7975199  )
        15           Zn  tau(  15) = (   0.6668441   0.3855320   0.2686085  )
        16           Mg  tau(  16) = (   0.6658362   0.3867748   0.8001309  )
        17           Zn  tau(  17) = (   0.4979265   0.6739636   0.2680859  )
        18           Zn  tau(  18) = (   0.5014401   0.6742818   0.7990559  )
        19           Zn  tau(  19) = (  -0.0017844   0.1928884   0.5348186  )
        20           Zn  tau(  20) = (   0.0007882   0.1920219   0.0033395  )
        21           Mg  tau(  21) = (  -0.1688423   0.4818629   0.5343219  )
        22           Zn  tau(  22) = (  -0.1646944   0.4809163   0.0013314  )
        23           Zn  tau(  23) = (  -0.3317589   0.7696167   0.5369919  )
        24           Mg  tau(  24) = (  -0.3346521   0.7692062   0.0033222  )
        25           Zn  tau(  25) = (   0.3327572   0.1921032   0.5346424  )
        26           Mg  tau(  26) = (   0.3334324   0.1920708   0.0032739  )
        27           Mg  tau(  27) = (   0.1652659   0.4794913   0.5346316  )
        28           Zn  tau(  28) = (   0.1665910   0.4821715   0.0050240  )
        29           Zn  tau(  29) = (  -0.0018098   0.7704576   0.5311339  )
        30           Zn  tau(  30) = (   0.0025159   0.7692638   0.0017083  )
        31           Mg  tau(  31) = (   0.6647134   0.1943752   0.5337797  )
        32           Zn  tau(  32) = (   0.6676317   0.1911339   0.0001904  )
        33           Zn  tau(  33) = (   0.5018475   0.4803100   0.5375902  )
        34           Zn  tau(  34) = (   0.4985180   0.4824746   0.0032272  )
        35           Mg  tau(  35) = (   0.3350860   0.7707962   0.5340953  )
        36           Mg  tau(  36) = (   0.3322512   0.7677400   0.0033592  )
        37           O   tau(  37) = (   0.1673240   0.0955770   0.0032559  )
        38           O   tau(  38) = (   0.1658820   0.0962152   0.5347245  )
        39           O   tau(  39) = (   0.0009002   0.3846172   0.0033886  )
        40           O   tau(  40) = (  -0.0019838   0.3856033   0.5342283  )
        41           O   tau(  41) = (  -0.1661200   0.6737885   0.0013812  )
        42           O   tau(  42) = (  -0.1666992   0.6732480   0.5368990  )
        43           O   tau(  43) = (   0.5007260   0.0962275   0.0028047  )
        44           O   tau(  44) = (   0.4992477   0.0966360   0.5345491  )
        45           O   tau(  45) = (   0.3327721   0.3844156   0.0033233  )
        46           O   tau(  46) = (   0.3330428   0.3850448   0.5345381  )
        47           O   tau(  47) = (   0.1674554   0.6729116   0.0050723  )
        48           O   tau(  48) = (   0.1675102   0.6735778   0.5310391  )
        49           O   tau(  49) = (   0.8339143   0.0943768   0.0011919  )
        50           O   tau(  50) = (   0.8312163   0.0964555   0.5336858  )
        51           O   tau(  51) = (   0.6670716   0.3848803   0.0002401  )
        52           O   tau(  52) = (   0.6672568   0.3850155   0.5374975  )
        53           O   tau(  53) = (   0.4988931   0.6741112   0.0032759  )
        54           O   tau(  54) = (   0.5009245   0.6738985   0.5340019  )
        55           O   tau(  55) = (  -0.0002770   0.1931455   0.2690311  )
        56           O   tau(  56) = (   0.0002008   0.1928579   0.8001375  )
        57           O   tau(  57) = (  -0.1666454   0.4811963   0.2694547  )
        58           O   tau(  58) = (  -0.1671411   0.4832689   0.7988882  )
        59           O   tau(  59) = (  -0.3335868   0.7696452   0.2678169  )
        60           O   tau(  60) = (  -0.3326687   0.7702553   0.8036539  )
        61           O   tau(  61) = (   0.3337044   0.1933361   0.2672791  )
        62           O   tau(  62) = (   0.3333596   0.1936480   0.8021442  )
        63           O   tau(  63) = (   0.1678124   0.4817537   0.2710360  )
        64           O   tau(  64) = (   0.1667215   0.4822013   0.7977659  )
        65           O   tau(  65) = (  -0.0006851   0.7701417   0.2690641  )
        66           O   tau(  66) = (   0.0014127   0.7710611   0.8007172  )
        67           O   tau(  67) = (   0.6675323   0.1933295   0.2693443  )
        68           O   tau(  68) = (   0.6677418   0.1933547   0.7976135  )
        69           O   tau(  69) = (   0.5001911   0.4812010   0.2687019  )
        70           O   tau(  70) = (   0.4988953   0.4817113   0.8002242  )
        71           O   tau(  71) = (   0.3313741   0.7717280   0.2681798  )
        72           O   tau(  72) = (   0.3338878   0.7707462   0.7991499  )

   Crystallographic axes

     site n.     atom                  positions (cryst. coord.)
         1           Zn  tau(   1) = (  0.2224468  0.1120511  0.2530326  )
         2           Zn  tau(   2) = (  0.2231767  0.1106421  0.7526477  )
         3           Zn  tau(   3) = (  0.2246589  0.4457621  0.2532972  )
         4           Zn  tau(   4) = (  0.2215107  0.4446292  0.7513376  )
         5           Zn  tau(   5) = (  0.2220888  0.7771414  0.2516222  )
         6           Mg  tau(   6) = (  0.2247688  0.7806949  0.7556873  )
         7           Zn  tau(   7) = (  0.5565479  0.1111433  0.2515144  )
         8           Zn  tau(   8) = (  0.5556431  0.1118571  0.7546649  )
         9           Mg  tau(   9) = (  0.5555681  0.4453116  0.2549148  )
        10           Mg  tau(  10) = (  0.5555904  0.4440520  0.7504120  )
        11           Mg  tau(  11) = (  0.5531670  0.7764816  0.2529250  )
[...]
     atom   35 type  3   force =     0.00000000    0.00000000    0.00000000
     atom   36 type  3   force =     0.00000000    0.00000000    0.00000000
     atom   37 type  2   force =     0.00201945   -0.00115667   -0.00001348
     atom   38 type  2   force =    -0.00010397    0.00001774   -0.00007485
     atom   39 type  2   force =     0.00006994   -0.00013209   -0.00008149
     atom   40 type  2   force =    -0.00007175    0.00235289    0.00004855
     atom   41 type  2   force =    -0.00202885    0.00125150    0.00047838
     atom   42 type  2   force =     0.00009784   -0.00256076   -0.00024620
     atom   43 type  2   force =    -0.00215535    0.00117143    0.00006976
     atom   44 type  2   force =     0.00217121    0.00111035    0.00016514
     atom   45 type  2   force =    -0.00000788   -0.00246981   -0.00006697
     atom   46 type  2   force =    -0.00200428    0.00127923   -0.00007756
     atom   47 type  2   force =     0.00214803    0.00124743   -0.00041782
     atom   48 type  2   force =     0.00189447   -0.00109742    0.00047610
     atom   49 type  2   force =     0.00015538   -0.00245561   -0.00006694
     atom   50 type  2   force =    -0.00207815   -0.00111797   -0.00000421
     atom   51 type  2   force =    -0.00007800    0.00006942    0.00036146
     atom   52 type  2   force =     0.00216076   -0.00120796   -0.00031527
     atom   53 type  2   force =    -0.00000962    0.00237458   -0.00006548
     atom   54 type  2   force =    -0.00202581    0.00111196   -0.00017606
     atom   55 type  2   force =    -0.00206722   -0.00113572    0.00002308
     atom   56 type  2   force =    -0.00201209   -0.00117466    0.00008839
     atom   57 type  2   force =     0.00006052   -0.00009485   -0.00042553
     atom   58 type  2   force =    -0.00193915    0.00118792    0.00025667
     atom   59 type  2   force =    -0.00005368    0.00000431    0.00046669
     atom   60 type  2   force =     0.00212174   -0.00123136   -0.00024815
     atom   61 type  2   force =     0.00002971    0.00229188    0.00040216
     atom   62 type  2   force =    -0.00004148    0.00244798   -0.00037753
     atom   63 type  2   force =     0.00206481    0.00117852   -0.00030493
     atom   64 type  2   force =     0.00193879   -0.00118475    0.00041434
     atom   65 type  2   force =     0.00204375   -0.00111907    0.00004815
     atom   66 type  2   force =    -0.00207255   -0.00117546   -0.00029970
     atom   67 type  2   force =     0.00209153   -0.00122881   -0.00045097
     atom   68 type  2   force =     0.00198026    0.00109268    0.00022785
     atom   69 type  2   force =    -0.00202480   -0.00118499    0.00007139
     atom   70 type  2   force =    -0.00005453   -0.00227640    0.00014725
     atom   71 type  2   force =    -0.00204019    0.00119677    0.00004989
     atom   72 type  2   force =     0.00006639    0.00233635   -0.00001247
     The Hubbard contrib.    to forces
     atom    1 type  1   force =     0.00000000    0.00000000    0.00000000
     atom    2 type  1   force =     0.00000000    0.00000000    0.00000000
     atom    3 type  1   force =     0.00000000    0.00000000    0.00000000
     atom    4 type  1   force =     0.00000000    0.00000000    0.00000000
     atom    5 type  1   force =     0.00000000    0.00000000    0.00000000
     atom    6 type  3   force =     0.00000000    0.00000000    0.00000000
     atom    7 type  1   force =     0.00000000    0.00000000    0.00000000
     atom    8 type  1   force =     0.00000000    0.00000000    0.00000000
     atom    9 type  3   force =     0.00000000    0.00000000    0.00000000
     atom   10 type  3   force =     0.00000000    0.00000000    0.00000000
     atom   11 type  3   force =     0.00000000    0.00000000    0.00000000
     atom   12 type  1   force =     0.00000000    0.00000000    0.00000000
     atom   13 type  3   force =     0.00000000    0.00000000    0.00000000
     atom   14 type  3   force =     0.00000000    0.00000000    0.00000000
     atom   15 type  1   force =     0.00000000    0.00000000    0.00000000
     atom   16 type  3   force =     0.00000000    0.00000000    0.00000000
     atom   17 type  1   force =     0.00000000    0.00000000    0.00000000
     atom   18 type  1   force =     0.00000000    0.00000000    0.00000000
     atom   19 type  1   force =     0.00000000    0.00000000    0.00000000
     atom   20 type  1   force =     0.00000000    0.00000000    0.00000000
     atom   21 type  3   force =     0.00000000    0.00000000    0.00000000
     atom   22 type  1   force =     0.00000000    0.00000000    0.00000000
     atom   23 type  1   force =     0.00000000    0.00000000    0.00000000
     atom   24 type  3   force =     0.00000000    0.00000000    0.00000000
     atom   25 type  1   force =     0.00000000    0.00000000    0.00000000
     atom   26 type  3   force =     0.00000000    0.00000000    0.00000000
     atom   27 type  3   force =     0.00000000    0.00000000    0.00000000
     atom   28 type  1   force =     0.00000000    0.00000000    0.00000000
     atom   29 type  1   force =     0.00000000    0.00000000    0.00000000
     atom   30 type  1   force =     0.00000000    0.00000000    0.00000000
     atom   31 type  3   force =     0.00000000    0.00000000    0.00000000
     atom   32 type  1   force =     0.00000000    0.00000000    0.00000000
     atom   33 type  1   force =     0.00000000    0.00000000    0.00000000
     atom   34 type  1   force =     0.00000000    0.00000000    0.00000000
     atom   35 type  3   force =     0.00000000    0.00000000    0.00000000
     atom   36 type  3   force =     0.00000000    0.00000000    0.00000000
     atom   37 type  2   force =     0.00000000    0.00000000    0.00000000
     atom   38 type  2   force =     0.00000000    0.00000000    0.00000000
     atom   39 type  2   force =     0.00000000    0.00000000    0.00000000
     atom   40 type  2   force =     0.00000000    0.00000000    0.00000000
     atom   41 type  2   force =     0.00000000    0.00000000    0.00000000
     atom   42 type  2   force =     0.00000000    0.00000000    0.00000000
     atom   43 type  2   force =     0.00000000    0.00000000    0.00000000
     atom   44 type  2   force =     0.00000000    0.00000000    0.00000000
     atom   45 type  2   force =     0.00000000    0.00000000    0.00000000
     atom   46 type  2   force =     0.00000000    0.00000000    0.00000000
     atom   47 type  2   force =     0.00000000    0.00000000    0.00000000
     atom   48 type  2   force =     0.00000000    0.00000000    0.00000000
     atom   49 type  2   force =     0.00000000    0.00000000    0.00000000
     atom   50 type  2   force =     0.00000000    0.00000000    0.00000000
     atom   51 type  2   force =     0.00000000    0.00000000    0.00000000
     atom   52 type  2   force =     0.00000000    0.00000000    0.00000000
     atom   53 type  2   force =     0.00000000    0.00000000    0.00000000
     atom   54 type  2   force =     0.00000000    0.00000000    0.00000000
     atom   55 type  2   force =     0.00000000    0.00000000    0.00000000
     atom   56 type  2   force =     0.00000000    0.00000000    0.00000000
     atom   57 type  2   force =     0.00000000    0.00000000    0.00000000
     atom   58 type  2   force =     0.00000000    0.00000000    0.00000000
     atom   59 type  2   force =     0.00000000    0.00000000    0.00000000
     atom   60 type  2   force =     0.00000000    0.00000000    0.00000000
     atom   61 type  2   force =     0.00000000    0.00000000    0.00000000
     atom   62 type  2   force =     0.00000000    0.00000000    0.00000000
     atom   63 type  2   force =     0.00000000    0.00000000    0.00000000
     atom   64 type  2   force =     0.00000000    0.00000000    0.00000000
     atom   65 type  2   force =     0.00000000    0.00000000    0.00000000
     atom   66 type  2   force =     0.00000000    0.00000000    0.00000000
     atom   67 type  2   force =     0.00000000    0.00000000    0.00000000
     atom   68 type  2   force =     0.00000000    0.00000000    0.00000000
     atom   69 type  2   force =     0.00000000    0.00000000    0.00000000
     atom   70 type  2   force =     0.00000000    0.00000000    0.00000000
     atom   71 type  2   force =     0.00000000    0.00000000    0.00000000
     atom   72 type  2   force =     0.00000000    0.00000000    0.00000000
     The SCF correction term to forces
     atom    1 type  1   force =     0.00000133   -0.00001468   -0.00004162
     atom    2 type  1   force =     0.00000505    0.00002120    0.00003269
     atom    3 type  1   force =    -0.00005116    0.00001150    0.00000419
     atom    4 type  1   force =    -0.00001279   -0.00001826   -0.00001025
     atom    5 type  1   force =    -0.00003613   -0.00005192   -0.00000273
     atom    6 type  3   force =    -0.00001575   -0.00000727   -0.00000498
     atom    7 type  1   force =     0.00001060    0.00002985    0.00001101
     atom    8 type  1   force =    -0.00001382    0.00003750   -0.00001945
     atom    9 type  3   force =    -0.00000628   -0.00000999    0.00000504
     atom   10 type  3   force =    -0.00001129   -0.00002685   -0.00000210
     atom   11 type  3   force =     0.00000801    0.00000019    0.00001163
     atom   12 type  1   force =     0.00001212   -0.00000048   -0.00002194
     atom   13 type  3   force =    -0.00000914    0.00001369    0.00000446
     atom   14 type  3   force =     0.00000680    0.00001003   -0.00001023
     atom   15 type  1   force =     0.00006868   -0.00000532    0.00002000
     atom   16 type  3   force =     0.00001817   -0.00000738   -0.00001912
     atom   17 type  1   force =     0.00002856    0.00002838   -0.00002103
     atom   18 type  1   force =     0.00001426    0.00003009    0.00002309
     atom   19 type  1   force =    -0.00002521   -0.00000524    0.00000980
     atom   20 type  1   force =    -0.00003175    0.00001401   -0.00000553
     atom   21 type  3   force =     0.00000338    0.00000805    0.00002030
     atom   22 type  1   force =    -0.00002140   -0.00003855   -0.00002429
     atom   23 type  1   force =    -0.00000284   -0.00002125    0.00000705
     atom   24 type  3   force =     0.00001051   -0.00000316   -0.00000242
     atom   25 type  1   force =     0.00002087    0.00004350    0.00000458
     atom   26 type  3   force =     0.00002246    0.00000500   -0.00000373
     atom   27 type  3   force =     0.00002778    0.00002086   -0.00000377
     atom   28 type  1   force =    -0.00000921   -0.00002846    0.00001091
     atom   29 type  1   force =     0.00004466   -0.00001382    0.00001632
     atom   30 type  1   force =     0.00000193    0.00002576   -0.00001359
     atom   31 type  3   force =     0.00000014   -0.00001827    0.00002188
     atom   32 type  1   force =    -0.00000229    0.00002820   -0.00003232
     atom   33 type  1   force =    -0.00005459   -0.00000377    0.00003247
     atom   34 type  1   force =     0.00003212   -0.00006766   -0.00002292
     atom   35 type  3   force =    -0.00002351   -0.00001594   -0.00000091
     atom   36 type  3   force =    -0.00000912    0.00002438   -0.00000221
     atom   37 type  2   force =     0.00000266    0.00000429    0.00000357
     atom   38 type  2   force =     0.00000786   -0.00000275   -0.00000191
     atom   39 type  2   force =    -0.00000650    0.00000080    0.00000269
     atom   40 type  2   force =     0.00000237    0.00001020   -0.00000156
     atom   41 type  2   force =    -0.00000101   -0.00000799   -0.00000021
     atom   42 type  2   force =    -0.00000180   -0.00000187    0.00000271
     atom   43 type  2   force =    -0.00000606    0.00000520   -0.00000194
     atom   44 type  2   force =    -0.00000189    0.00000320    0.00000335
     atom   45 type  2   force =    -0.00000274   -0.00000986   -0.00000133
     atom   46 type  2   force =    -0.00001193   -0.00000150    0.00000117
     atom   47 type  2   force =    -0.00000109   -0.00000010    0.00000043
     atom   48 type  2   force =     0.00000624   -0.00000556   -0.00000234
     atom   49 type  2   force =     0.00000270   -0.00000041   -0.00000234
     atom   50 type  2   force =    -0.00001055   -0.00000350    0.00000396
     atom   51 type  2   force =     0.00001078    0.00000055   -0.00000080
     atom   52 type  2   force =     0.00000705   -0.00000485    0.00000795
     atom   53 type  2   force =    -0.00000125    0.00000553    0.00000288
     atom   54 type  2   force =    -0.00000264    0.00000891   -0.00000254
     atom   55 type  2   force =    -0.00000528    0.00000759   -0.00000649
     atom   56 type  2   force =    -0.00000830    0.00000299    0.00000589
     atom   57 type  2   force =     0.00000111   -0.00000224   -0.00000667
     atom   58 type  2   force =    -0.00000121   -0.00000354   -0.00000029
     atom   59 type  2   force =     0.00000354   -0.00000560   -0.00000329
     atom   60 type  2   force =     0.00000875   -0.00000335    0.00000450
     atom   61 type  2   force =    -0.00000200    0.00000390   -0.00000325
     atom   62 type  2   force =    -0.00000301    0.00001193    0.00000240
     atom   63 type  2   force =    -0.00000510   -0.00000464    0.00000072
     atom   64 type  2   force =    -0.00000139   -0.00000781    0.00000153
     atom   65 type  2   force =    -0.00000288   -0.00000867   -0.00000135
     atom   66 type  2   force =    -0.00000143   -0.00000390    0.00000000
     atom   67 type  2   force =     0.00001257    0.00000595    0.00000266
     atom   68 type  2   force =     0.00001119    0.00000419   -0.00000619
     atom   69 type  2   force =     0.00000384   -0.00000501   -0.00000371
     atom   70 type  2   force =     0.00000008   -0.00001236    0.00000234
     atom   71 type  2   force =    -0.00000533    0.00000610   -0.00000180
     atom   72 type  2   force =    -0.00000312    0.00001087    0.00000199

     Total force =     0.082769     Total SCF correction =     0.000240

     Computing stress (Cartesian axis) and pressure

          total   stress  (Ry/bohr**3)                   (kbar)     P=   61.18
   0.00086820   0.00000072  -0.00000007        127.72      0.11     -0.01
   0.00000072   0.00086418  -0.00000063          0.11    127.13     -0.09
  -0.00000007  -0.00000063  -0.00048468         -0.01     -0.09    -71.30

     kinetic stress (kbar)  27940.84      0.82     -0.11
                                0.82  27940.64     -0.03
                               -0.11     -0.03  28325.09

     local   stress (kbar) -20664.67   -325.86   1687.01
                             -325.86 -25280.31  -1194.21
                             1687.01  -1194.21  11100.41

     nonloc. stress (kbar)   1137.17     -0.20     -0.19
                               -0.20   1138.42      0.06
                               -0.19      0.06    827.86

     hartree stress (kbar)  51977.04    152.24   -823.45
                              152.24  54233.09    582.77
                             -823.45    582.77  40484.26

     exc-cor stress (kbar) -11244.08      0.02     -0.00
                                0.02 -11244.09      0.00
                               -0.00      0.00 -11261.90

     corecor stress (kbar)   -248.59     -0.00     -0.00
                               -0.00   -248.59      0.00
                               -0.00      0.00   -248.94

     ewald   stress (kbar) -48769.99    173.10   -863.27
                              173.10 -46412.05    611.32
                             -863.27    611.32 -69298.07

     hubbard stress (kbar)      0.00      0.00      0.00
                                0.00      0.00      0.00
                                0.00      0.00      0.00

     london  stress (kbar)      0.00      0.00      0.00
                                0.00      0.00      0.00
                                0.00      0.00      0.00

     DFT-D3  stress (kbar)      0.00      0.00      0.00
                                0.00      0.00      0.00
                                0.00      0.00      0.00

     XDM     stress (kbar)      0.00      0.00      0.00
                                0.00      0.00      0.00
                                0.00      0.00      0.00

     dft-nl  stress (kbar)      0.00      0.00      0.00
                                0.00      0.00      0.00
                                0.00      0.00      0.00

     TS-vdW  stress (kbar)      0.00      0.00      0.00
                                0.00      0.00      0.00
                                0.00      0.00      0.00

     Writing output data file ZnO.save/

     General routines

     Parallel routines

   This run was terminated on:  13:52:34   8Nov2021

   JOB DONE.