     Program PWSCF v.6.4.1 starts on 11Aug2021 at 14:49:33

     K-points division:     npool     =       8
     R & G space division:  proc/nbgrp/npool/nimage =      16
     Waiting for input...
     Reading input from standard input
Warning: card &CELL ignored
Warning: card   CELL_DYNAMICS     = 'BFGS' ignored
Warning: card   PRESS_CONV_THR    = 0.5D0 ignored
Warning: card   CELL_DOFREE = 'ALL' ignored
Warning: card / ignored

     Current dimensions of program PWSCF are:
     Max number of different atomic species (ntypx) = 10
     Max number of k-points (npk) =  40000
     Max angular momentum in pseudopotentials (lmaxx) =  3

     bravais-lattice index     =            0
     lattice parameter (alat)  =      18.3962  a.u.
     unit-cell volume          =    5756.1211 (a.u.)^3
     number of atoms/cell      =           72
     number of atomic types    =            3
     number of electrons       =       836.00
     number of Kohn-Sham states=          502
     kinetic-energy cutoff     =      60.0000  Ry
     charge density cutoff     =     500.0000  Ry
     convergence threshold     =      1.0E-08
     mixing beta               =       0.5000
     number of iterations used =            8  plain     mixing
     Exchange-correlation      = SLA  PW   PSX  PSC ( 1  4 10  8 0 0)
     nstep                     =          200

     celldm(1)=  18.396228  celldm(2)=   0.000000  celldm(3)=   0.000000
     celldm(4)=   0.000000  celldm(5)=   0.000000  celldm(6)=   0.000000

     crystal axes: (cart. coord. in units of alat)
               a(1) = (   0.999999  -0.001169  -0.000248 )
               a(2) = (  -0.501010   0.867329   0.000213 )
               a(3) = (  -0.000266   0.000110   1.066727 )

     reciprocal axes: (cart. coord. in units 2 pi/alat)
               b(1) = (  1.000676  0.578038  0.000190 )
               b(2) = (  0.001348  1.153744 -0.000118 )
               b(3) = (  0.000232 -0.000096  0.937447 )

     PseudoPot. # 1 for Zn read from file:
     ./GBRV_PBEsol/zn_pbesol_v1.uspp.F.UPF
     MD5 check sum: 7d8615e52efe7c1e2b1899de8658bae2
     Pseudo is Ultrasoft, Zval = 20.0
     Generated by new atomic code, or converted to UPF format
     Using radial grid of  943 points,  6 beta functions with:
                l(1) =   0
                l(2) =   0
                l(3) =   1
                l(4) =   1
                l(5) =   2
                l(6) =   2
     Q(r) pseudized with  8 coefficients,  rinner =    1.100   1.100   1.100
                                                       1.100   1.100

     PseudoPot. # 2 for O  read from file:
     ./GBRV_PBEsol/o_pbesol_v1.2.uspp.F.UPF
     MD5 check sum: 501638753501ef6325af9037351f7734
     Pseudo is Ultrasoft + core correction, Zval =  6.0
     Generated by new atomic code, or converted to UPF format
     Using radial grid of  737 points,  5 beta functions with:
                l(1) =   0
                l(2) =   0
                l(3) =   1
                l(4) =   1
                l(5) =   2
     Q(r) pseudized with  8 coefficients,  rinner =    0.900   0.900   0.900
                                                       0.900   0.900

     PseudoPot. # 3 for Mg read from file:
     ./GBRV_PBEsol/mg_pbesol_v1.4.uspp.F.UPF
     MD5 check sum: 4059f37963cf5867752dbf5ab2400678
     Pseudo is Ultrasoft, Zval = 10.0
     Generated by new atomic code, or converted to UPF format
     Using radial grid of  821 points,  7 beta functions with:
                l(1) =   0
                l(2) =   0
                l(3) =   0
                l(4) =   1
                l(5) =   1
                l(6) =   2
                l(7) =   2
     Q(r) pseudized with  8 coefficients,  rinner =    1.200   1.200   1.200
                                                       1.200   1.200

     atomic species   valence    mass     pseudopotential
        Zn            20.00    65.38000     Zn( 1.00)
        O              6.00    15.99900     O ( 1.00)
        Mg            10.00    24.30500     Mg( 1.00)

     No symmetry found

                                    s                        frac. trans.

      isym =  1     identity

 cryst.   s( 1) = (     1          0          0      )
                  (     0          1          0      )
                  (     0          0          1      )

 cart.    s( 1) = (  1.0000000 -0.0000000 -0.0000000 )
                  (  0.0000000  1.0000000 -0.0000000 )
                  (  0.0000000 -0.0000000  1.0000000 )

   Cartesian axes

     site n.     atom                  positions (alat units)
         1           Zn  tau(   1) = (   0.1677339   0.0963924   0.2066497  )
         2           Zn  tau(   2) = (   0.1665722   0.0967594   0.7399666  )
         3           Zn  tau(   3) = (  -0.0009244   0.3858825   0.2064843  )
         4           Zn  tau(   4) = (  -0.0004834   0.3846543   0.7395372  )
         5           Zn  tau(   5) = (  -0.1674994   0.6737639   0.2063476  )
         6           Zn  tau(   6) = (  -0.1680267   0.6746886   0.7395236  )
         7           Zn  tau(   7) = (   0.4990106   0.0946456   0.2061220  )
         8           Mg  tau(   8) = (   0.4996444   0.0950174   0.7421973  )
         9           Zn  tau(   9) = (   0.3324419   0.3851511   0.2063200  )
        10           Mg  tau(  10) = (   0.3320805   0.3856616   0.7421712  )
        11           Mg  tau(  11) = (   0.1649172   0.6745796   0.2080804  )
        12           Zn  tau(  12) = (   0.1636022   0.6728702   0.7392937  )
        13           Zn  tau(  13) = (   0.8314756   0.0915476   0.2068350  )
        14           Zn  tau(  14) = (   0.8340846   0.0977314   0.7403959  )
        15           Mg  tau(  15) = (   0.6648444   0.3822589   0.2071370  )
        16           Zn  tau(  16) = (   0.6660046   0.3845260   0.7385113  )
        17           Mg  tau(  17) = (   0.4969936   0.6739753   0.2077271  )
        18           Zn  tau(  18) = (   0.5014945   0.6734200   0.7383479  )
        19           Zn  tau(  19) = (  -0.0001545   0.1932626   0.4725318  )
        20           Mg  tau(  20) = (   0.0006739   0.1932148   1.0095172  )
        21           Mg  tau(  21) = (  -0.1662639   0.4823702   0.4736652  )
        22           Mg  tau(  22) = (  -0.1666370   0.4821717   1.0062693  )
        23           Zn  tau(  23) = (  -0.3330374   0.7716380   0.4725024  )
        24           Mg  tau(  24) = (  -0.3334027   0.7717127   1.0078674  )
        25           Zn  tau(  25) = (   0.3340092   0.1931599   0.4734255  )
        26           Zn  tau(  26) = (   0.3320277   0.1921622   1.0064822  )
        27           Zn  tau(  27) = (   0.1666120   0.4799706   0.4731835  )
        28           Zn  tau(  28) = (   0.1646662   0.4824444   1.0073958  )
        29           Zn  tau(  29) = (  -0.0023828   0.7719547   0.4735516  )
        30           Zn  tau(  30) = (  -0.0007678   0.7688926   1.0073242  )
        31           Zn  tau(  31) = (   0.6657001   0.1911137   0.4734087  )
        32           Zn  tau(  32) = (   0.6670451   0.1929090   1.0069961  )
        33           Zn  tau(  33) = (   0.4985066   0.4801500   0.4721586  )
        34           Zn  tau(  34) = (   0.5010149   0.4822565   1.0067488  )
        35           Mg  tau(  35) = (   0.3321267   0.7714442   0.4758573  )
        36           Zn  tau(  36) = (   0.3322834   0.7688924   1.0045736  )
        37           O   tau(  37) = (   0.1665515   0.0959113   0.0033159  )
        38           O   tau(  38) = (   0.1664581   0.0966407   0.5361113  )
        39           O   tau(  39) = (  -0.0012475   0.3853582   0.0029498  )
        40           O   tau(  40) = (  -0.0006049   0.3851586   0.5362689  )
        41           O   tau(  41) = (  -0.1679074   0.6735762   0.0025966  )
        42           O   tau(  42) = (  -0.1679104   0.6743424   0.5363964  )
        43           O   tau(  43) = (   0.4999474   0.0954625   0.0018781  )
        44           O   tau(  44) = (   0.4994515   0.0959715   0.5390634  )
        45           O   tau(  45) = (   0.3331588   0.3855077   0.0017616  )
        46           O   tau(  46) = (   0.3327849   0.3850330   0.5389890  )
        47           O   tau(  47) = (   0.1664247   0.6742234   0.0051342  )
        48           O   tau(  48) = (   0.1649728   0.6739041   0.5350649  )
        49           O   tau(  49) = (   0.8336576   0.0944565   0.0026464  )
        50           O   tau(  50) = (   0.8332984   0.0963812   0.5368885  )
        51           O   tau(  51) = (   0.6674714   0.3850372   0.0043218  )
        52           O   tau(  52) = (   0.6664078   0.3846772   0.5343094  )
        53           O   tau(  53) = (   0.4999012   0.6746417   0.0044204  )
        54           O   tau(  54) = (   0.4993758   0.6737796   0.5344714  )
        55           O   tau(  55) = (  -0.0009749   0.1919835   0.2682404  )
        56           O   tau(  56) = (   0.0005933   0.1929985   0.8061119  )
        57           O   tau(  57) = (  -0.1686916   0.4808234   0.2704460  )
        58           O   tau(  58) = (  -0.1673325   0.4817351   0.8027362  )
        59           O   tau(  59) = (  -0.3348421   0.7705181   0.2683921  )
        60           O   tau(  60) = (  -0.3338667   0.7716464   0.8047642  )
        61           O   tau(  61) = (   0.3336872   0.1928857   0.2701011  )
        62           O   tau(  62) = (   0.3336945   0.1929483   0.8027456  )
        63           O   tau(  63) = (   0.1659502   0.4815756   0.2695194  )
        64           O   tau(  64) = (   0.1656002   0.4815210   0.8037556  )
        65           O   tau(  65) = (  -0.0016953   0.7702143   0.2700022  )
        66           O   tau(  66) = (  -0.0011876   0.7702010   0.8037697  )
        67           O   tau(  67) = (   0.6659472   0.1902995   0.2696996  )
        68           O   tau(  68) = (   0.6662778   0.1922926   0.8031843  )
        69           O   tau(  69) = (   0.4995298   0.4810702   0.2685775  )
        70           O   tau(  70) = (   0.4997969   0.4813312   0.8028985  )
        71           O   tau(  71) = (   0.3313555   0.7682745   0.2730665  )
        72           O   tau(  72) = (   0.3325373   0.7698657   0.8002384  )

   Crystallographic axes

     site n.     atom                  positions (cryst. coord.)
         1           Zn  tau(   1) = (  0.2236050  0.1114139  0.1937528  )
         2           Zn  tau(   2) = (  0.2227559  0.1117728  0.6937086  )
         3           Zn  tau(   3) = (  0.2221688  0.4451840  0.1935308  )
         4           Zn  tau(   4) = (  0.2220014  0.4437047  0.6932397  )
         5           Zn  tau(   5) = (  0.2218876  0.7771010  0.1933364  )
         6           Zn  tau(   6) = (  0.2219956  0.7781042  0.6931602  )
         7           Zn  tau(   7) = (  0.5540960  0.1098454  0.1933353  )
         8           Mg  tau(   8) = (  0.5550468  0.1102118  0.6958773  )
         9           Zn  tau(   9) = (  0.5553378  0.4447897  0.1934543  )
        10           Mg  tau(  10) = (  0.5553730  0.4453149  0.6957861  )
        11           Mg  tau(  11) = (  0.5550009  0.7784902  0.1950380  )
        12           Zn  tau(  12) = (  0.5527977  0.7764534  0.6930219  )
[...]
     atom   14 type  1   force =     0.00000000    0.00000000    0.00000000
     atom   15 type  3   force =     0.00000000    0.00000000    0.00000000
     atom   16 type  1   force =     0.00000000    0.00000000    0.00000000
     atom   17 type  3   force =     0.00000000    0.00000000    0.00000000
     atom   18 type  1   force =     0.00000000    0.00000000    0.00000000
     atom   19 type  1   force =     0.00000000    0.00000000    0.00000000
     atom   20 type  3   force =     0.00000000    0.00000000    0.00000000
     atom   21 type  3   force =     0.00000000    0.00000000    0.00000000
     atom   22 type  3   force =     0.00000000    0.00000000    0.00000000
     atom   23 type  1   force =     0.00000000    0.00000000    0.00000000
     atom   24 type  3   force =     0.00000000    0.00000000    0.00000000
     atom   25 type  1   force =     0.00000000    0.00000000    0.00000000
     atom   26 type  1   force =     0.00000000    0.00000000    0.00000000
     atom   27 type  1   force =     0.00000000    0.00000000    0.00000000
     atom   28 type  1   force =     0.00000000    0.00000000    0.00000000
     atom   29 type  1   force =     0.00000000    0.00000000    0.00000000
     atom   30 type  1   force =     0.00000000    0.00000000    0.00000000
     atom   31 type  1   force =     0.00000000    0.00000000    0.00000000
     atom   32 type  1   force =     0.00000000    0.00000000    0.00000000
     atom   33 type  1   force =     0.00000000    0.00000000    0.00000000
     atom   34 type  1   force =     0.00000000    0.00000000    0.00000000
     atom   35 type  3   force =     0.00000000    0.00000000    0.00000000
     atom   36 type  1   force =     0.00000000    0.00000000    0.00000000
     atom   37 type  2   force =     0.00000000    0.00000000    0.00000000
     atom   38 type  2   force =     0.00000000    0.00000000    0.00000000
     atom   39 type  2   force =     0.00000000    0.00000000    0.00000000
     atom   40 type  2   force =     0.00000000    0.00000000    0.00000000
     atom   41 type  2   force =     0.00000000    0.00000000    0.00000000
     atom   42 type  2   force =     0.00000000    0.00000000    0.00000000
     atom   43 type  2   force =     0.00000000    0.00000000    0.00000000
     atom   44 type  2   force =     0.00000000    0.00000000    0.00000000
     atom   45 type  2   force =     0.00000000    0.00000000    0.00000000
     atom   46 type  2   force =     0.00000000    0.00000000    0.00000000
     atom   47 type  2   force =     0.00000000    0.00000000    0.00000000
     atom   48 type  2   force =     0.00000000    0.00000000    0.00000000
     atom   49 type  2   force =     0.00000000    0.00000000    0.00000000
     atom   50 type  2   force =     0.00000000    0.00000000    0.00000000
     atom   51 type  2   force =     0.00000000    0.00000000    0.00000000
     atom   52 type  2   force =     0.00000000    0.00000000    0.00000000
     atom   53 type  2   force =     0.00000000    0.00000000    0.00000000
     atom   54 type  2   force =     0.00000000    0.00000000    0.00000000
     atom   55 type  2   force =     0.00000000    0.00000000    0.00000000
     atom   56 type  2   force =     0.00000000    0.00000000    0.00000000
     atom   57 type  2   force =     0.00000000    0.00000000    0.00000000
     atom   58 type  2   force =     0.00000000    0.00000000    0.00000000
     atom   59 type  2   force =     0.00000000    0.00000000    0.00000000
     atom   60 type  2   force =     0.00000000    0.00000000    0.00000000
     atom   61 type  2   force =     0.00000000    0.00000000    0.00000000
     atom   62 type  2   force =     0.00000000    0.00000000    0.00000000
     atom   63 type  2   force =     0.00000000    0.00000000    0.00000000
     atom   64 type  2   force =     0.00000000    0.00000000    0.00000000
     atom   65 type  2   force =     0.00000000    0.00000000    0.00000000
     atom   66 type  2   force =     0.00000000    0.00000000    0.00000000
     atom   67 type  2   force =     0.00000000    0.00000000    0.00000000
     atom   68 type  2   force =     0.00000000    0.00000000    0.00000000
     atom   69 type  2   force =     0.00000000    0.00000000    0.00000000
     atom   70 type  2   force =     0.00000000    0.00000000    0.00000000
     atom   71 type  2   force =     0.00000000    0.00000000    0.00000000
     atom   72 type  2   force =     0.00000000    0.00000000    0.00000000
     The SCF correction term to forces
     atom    1 type  1   force =     0.00000193    0.00000039    0.00000285
     atom    2 type  1   force =     0.00000031    0.00000025    0.00000173
     atom    3 type  1   force =     0.00000300    0.00000065    0.00000151
     atom    4 type  1   force =     0.00000272    0.00000121    0.00000056
     atom    5 type  1   force =     0.00000288    0.00000353    0.00000211
     atom    6 type  1   force =     0.00000261    0.00000213   -0.00000079
     atom    7 type  1   force =     0.00000307   -0.00000266    0.00000171
     atom    8 type  3   force =     0.00000037    0.00000022    0.00000015
     atom    9 type  1   force =    -0.00000062    0.00000214    0.00000127
     atom   10 type  3   force =     0.00000029   -0.00000004    0.00000030
     atom   11 type  3   force =     0.00000048   -0.00000007    0.00000005
     atom   12 type  1   force =    -0.00000044    0.00000206   -0.00000129
     atom   13 type  1   force =    -0.00000228   -0.00000385    0.00000402
     atom   14 type  1   force =    -0.00000050   -0.00000473    0.00000081
     atom   15 type  3   force =    -0.00000010    0.00000023    0.00000013
     atom   16 type  1   force =    -0.00000009   -0.00000203   -0.00000146
     atom   17 type  3   force =    -0.00000005   -0.00000028   -0.00000017
     atom   18 type  1   force =    -0.00000203    0.00000350   -0.00000137
     atom   19 type  1   force =     0.00000136    0.00000076   -0.00000042
     atom   20 type  3   force =     0.00000017   -0.00000046   -0.00000018
     atom   21 type  3   force =    -0.00000023   -0.00000022   -0.00000091
     atom   22 type  3   force =    -0.00000005   -0.00000008   -0.00000020
     atom   23 type  1   force =     0.00000220    0.00000281   -0.00000112
     atom   24 type  3   force =    -0.00000027    0.00000051    0.00000018
     atom   25 type  1   force =    -0.00000036   -0.00000042    0.00000136
     atom   26 type  1   force =    -0.00000398   -0.00000121    0.00000544
     atom   27 type  1   force =     0.00000022   -0.00000315    0.00000332
     atom   28 type  1   force =    -0.00000110   -0.00000239    0.00000267
     atom   29 type  1   force =    -0.00000119    0.00000239    0.00000372
     atom   30 type  1   force =     0.00000084    0.00000076    0.00000381
     atom   31 type  1   force =    -0.00000118   -0.00000300    0.00000091
     atom   32 type  1   force =    -0.00000096   -0.00000350    0.00000283
     atom   33 type  1   force =    -0.00000311   -0.00000212    0.00000014
     atom   34 type  1   force =    -0.00000252   -0.00000097    0.00000007
     atom   35 type  3   force =    -0.00000006   -0.00000002    0.00000040
     atom   36 type  1   force =    -0.00000199    0.00000212   -0.00000342
     atom   37 type  2   force =    -0.00000030   -0.00000028   -0.00000018
     atom   38 type  2   force =     0.00000003    0.00000012    0.00000016
     atom   39 type  2   force =     0.00000013   -0.00000018   -0.00000039
     atom   40 type  2   force =     0.00000034   -0.00000015    0.00000029
     atom   41 type  2   force =     0.00000014    0.00000045    0.00000016
     atom   42 type  2   force =     0.00000013    0.00000004    0.00000018
     atom   43 type  2   force =    -0.00000006    0.00000010    0.00000015
     atom   44 type  2   force =    -0.00000001   -0.00000023   -0.00000027
     atom   45 type  2   force =     0.00000000    0.00000001   -0.00000002
     atom   46 type  2   force =     0.00000001    0.00000004   -0.00000027
     atom   47 type  2   force =     0.00000000    0.00000009   -0.00000052
     atom   48 type  2   force =     0.00000010    0.00000016   -0.00000030
     atom   49 type  2   force =    -0.00000001    0.00000013   -0.00000059
     atom   50 type  2   force =     0.00000018   -0.00000014    0.00000029
     atom   51 type  2   force =     0.00000033    0.00000009   -0.00000043
     atom   52 type  2   force =    -0.00000007   -0.00000000   -0.00000029
     atom   53 type  2   force =    -0.00000009    0.00000047   -0.00000053
     atom   54 type  2   force =     0.00000013    0.00000065    0.00000014
     atom   55 type  2   force =     0.00000025    0.00000002   -0.00000061
     atom   56 type  2   force =    -0.00000009   -0.00000039    0.00000015
     atom   57 type  2   force =    -0.00000015    0.00000013   -0.00000040
     atom   58 type  2   force =    -0.00000033   -0.00000001   -0.00000017
     atom   59 type  2   force =    -0.00000005    0.00000038   -0.00000034
     atom   60 type  2   force =     0.00000003    0.00000039    0.00000007
     atom   61 type  2   force =     0.00000048    0.00000044    0.00000001
     atom   62 type  2   force =     0.00000014    0.00000018   -0.00000022
     atom   63 type  2   force =    -0.00000008    0.00000056   -0.00000022
     atom   64 type  2   force =     0.00000002    0.00000015    0.00000003
     atom   65 type  2   force =     0.00000009   -0.00000006    0.00000028
     atom   66 type  2   force =    -0.00000033    0.00000015    0.00000023
     atom   67 type  2   force =    -0.00000008   -0.00000041   -0.00000027
     atom   68 type  2   force =    -0.00000013   -0.00000130   -0.00000033
     atom   69 type  2   force =     0.00000002    0.00000011   -0.00000033
     atom   70 type  2   force =    -0.00000064    0.00000015   -0.00000012
     atom   71 type  2   force =    -0.00000010   -0.00000019   -0.00000024
     atom   72 type  2   force =    -0.00000059   -0.00000058   -0.00000030

     Total force =     0.000041     Total SCF correction =     0.000020
     SCF correction compared to forces is large: reduce conv_thr to get better values

     Computing stress (Cartesian axis) and pressure

          total   stress  (Ry/bohr**3)                   (kbar)     P=   -0.01
  -0.00000006  -0.00000006  -0.00000002         -0.01     -0.01     -0.00
  -0.00000006  -0.00000002   0.00000001         -0.01     -0.00      0.00
  -0.00000002   0.00000001  -0.00000016         -0.00      0.00     -0.02

     kinetic stress (kbar)  29670.39      0.37     -0.08
                                0.37  29669.77      0.28
                               -0.08      0.28  29703.43

     local   stress (kbar)  -8773.29   2141.99   1471.92
                             2141.99  -8888.28    520.08
                             1471.92    520.08 -11840.73

     nonloc. stress (kbar)    246.21     -0.73     -0.14
                               -0.73    246.77     -0.11
                               -0.14     -0.11    231.71

     hartree stress (kbar)  53080.23  -1039.96   -719.95
                            -1039.96  53129.34   -255.59
                             -719.95   -255.59  54556.59

     exc-cor stress (kbar) -12066.86     -0.04     -0.00
                               -0.04 -12066.83      0.00
                               -0.00      0.00 -12067.13

     corecor stress (kbar)   -248.53     -0.00      0.00
                               -0.00   -248.53     -0.00
                                0.00     -0.00   -248.57

     ewald   stress (kbar) -61908.15  -1101.62   -751.75
                            -1101.62 -61842.24   -264.66
                             -751.75   -264.66 -60335.33

     hubbard stress (kbar)      0.00      0.00      0.00
                                0.00      0.00      0.00
                                0.00      0.00      0.00

     london  stress (kbar)      0.00      0.00      0.00
                                0.00      0.00      0.00
                                0.00      0.00      0.00

     DFT-D3  stress (kbar)      0.00      0.00      0.00
                                0.00      0.00      0.00
                                0.00      0.00      0.00

     XDM     stress (kbar)      0.00      0.00      0.00
                                0.00      0.00      0.00
                                0.00      0.00      0.00

     dft-nl  stress (kbar)      0.00      0.00      0.00
                                0.00      0.00      0.00
                                0.00      0.00      0.00

     TS-vdW  stress (kbar)      0.00      0.00      0.00
                                0.00      0.00      0.00
                                0.00      0.00      0.00

     Message from routine bfgs:
     history already reset at previous step: stopping

     bfgs converged in   4 scf cycles and   3 bfgs steps
     (criteria: energy <  1.0E-07 Ry, force <  1.0E-06 Ry/Bohr)

     End of BFGS Geometry Optimization

     Final energy   =  -14407.9288233519 Ry
Begin final coordinates

ATOMIC_POSITIONS (crystal)
Zn       0.223603409   0.111413042   0.193752022
Zn       0.222755490   0.111772436   0.693708671
Zn       0.222168072   0.445183841   0.193530520
Zn       0.222000706   0.443704630   0.693239567
Zn       0.221886214   0.777099949   0.193335489
Zn       0.221994709   0.778103497   0.693160560
Zn       0.554096690   0.109846551   0.193334862
Mg       0.555047422   0.110212680   0.695877890
Zn       0.555338629   0.444789471   0.193453728
Mg       0.555373439   0.445314852   0.695786233
Mg       0.555001171   0.778490056   0.195038058
Zn       0.552799226   0.776453305   0.693022523
Zn       0.884995141   0.106720022   0.194080267
Zn       0.891282123   0.113795495   0.694265597
Mg       0.886292441   0.441900974   0.194297385
Zn       0.888867077   0.444457013   0.692432342
Mg       0.886951600   0.778240154   0.194783847
Zn       0.891235499   0.777542628   0.692213486
Zn       0.111647649   0.222919328   0.442954288
Mg       0.112551139   0.222801935   0.946350402
Mg       0.112540355   0.556250959   0.443950394
Mg       0.112154546   0.555958902   0.943240051
Zn       0.112861558   0.889767457   0.442793895
Mg       0.112641952   0.889790539   0.944671021
Zn       0.445978829   0.223251780   0.443869286
Zn       0.443521086   0.222035382   0.943581356
Zn       0.444256351   0.553932859   0.443576069
Zn       0.443840369   0.556720538   0.944371584
Zn       0.443925283   0.890579266   0.443853796
Zn       0.443871368   0.886985217   0.944238889
Zn       0.776711863   0.221339035   0.443930719
Zn       0.779196892   0.223348236   0.944141824
Zn       0.776479015   0.554586697   0.442692282
Zn       0.780307457   0.556957858   0.943843599
Mg       0.778366542   0.890441465   0.446093618
Zn       0.777148904   0.887434508   0.941738861
O        0.222106030   0.110881946   0.003137893
O        0.222534142   0.111659575   0.502605426
O        0.221503906   0.444602768   0.002728522
O        0.222132520   0.444310437   0.502686160
O        0.221331541   0.776907409   0.002330564
O        0.221873199   0.777729045   0.502739028
O        0.555466704   0.110813312   0.001867845
O        0.555367418   0.111336902   0.505450288
O        0.556222196   0.445225718   0.001692274
O        0.555676376   0.444614945   0.505314118
O        0.556265444   0.778105392   0.004787933
O        0.554728891   0.777672420   0.501569326
O        0.888821159   0.110101688   0.002666525
O        0.889675309   0.112259234   0.503488293
O        0.890489269   0.445133917   0.004170590
O        0.889317319   0.444654094   0.501004604
O        0.890208440   0.779037322   0.004196337
O        0.889283913   0.777978724   0.501089670
O        0.110048475   0.221467016   0.251442764
O        0.112307658   0.222576538   0.755668975
O        0.109179266   0.554487348   0.253443574
O        0.111168126   0.555478461   0.752438378
O        0.110370593   0.888496726   0.251451385
O        0.112100678   0.889737480   0.754272636
O        0.445459061   0.222958523   0.253263515
O        0.445603623   0.222968024   0.752590893
O        0.444482334   0.555805500   0.252652129
O        0.444202271   0.555680267   0.753470551
O        0.443567922   0.888596877   0.253037301
O        0.444170493   0.888518503   0.753417027
O        0.776449625   0.220423707   0.252965550
O        0.778034045   0.222661727   0.753079474
O        0.777995423   0.555673682   0.251847173
O        0.778515432   0.555911872   0.752745025
O        0.775723854   0.886807315   0.255988176
O        0.777927126   0.888583019   0.750185098
End final coordinates

     Writing output data file ZnO.save/

     General routines

     Parallel routines

   This run was terminated on:  15:29:34  11Aug2021

   JOB DONE.