     Program PWSCF v.6.4.1 starts on  8Nov2021 at 16: 7:58

     K-points division:     npool     =       8
     R & G space division:  proc/nbgrp/npool/nimage =      16
     Waiting for input...
     Reading input from standard input
Warning: card &IONS ignored
Warning: card   UPSCALE           = 100.D0, ignored
Warning: card / ignored
Warning: card &CELL ignored
Warning: card   CELL_DYNAMICS     = 'BFGS' ignored
Warning: card   PRESS_CONV_THR    = 0.5D0 ignored
Warning: card   CELL_DOFREE = 'ALL' ignored
Warning: card / ignored

     Current dimensions of program PWSCF are:
     Max number of different atomic species (ntypx) = 10
     Max number of k-points (npk) =  40000
     Max angular momentum in pseudopotentials (lmaxx) =  3

     bravais-lattice index     =            0
     lattice parameter (alat)  =      18.4447  a.u.
     unit-cell volume          =    5760.2657 (a.u.)^3
     number of atoms/cell      =           72
     number of atomic types    =            3
     number of electrons       =       776.00
     number of Kohn-Sham states=          466
     kinetic-energy cutoff     =      60.0000  Ry
     charge density cutoff     =     500.0000  Ry
     convergence threshold     =      1.0E-08
     mixing beta               =       0.5000
     number of iterations used =            8  plain     mixing
     Exchange-correlation      = SLA  PW   PSX  PSC ( 1  4 10  8 0 0)

     celldm(1)=  18.444651  celldm(2)=   0.000000  celldm(3)=   0.000000
     celldm(4)=   0.000000  celldm(5)=   0.000000  celldm(6)=   0.000000

     crystal axes: (cart. coord. in units of alat)
               a(1) = (   1.000000  -0.000668   0.000654 )
               a(2) = (  -0.500577   0.867025  -0.000259 )
               a(3) = (   0.000697   0.000083   1.059175 )

     reciprocal axes: (cart. coord. in units 2 pi/alat)
               b(1) = (  1.000387  0.577573 -0.000703 )
               b(2) = (  0.000771  1.153815 -0.000090 )
               b(3) = ( -0.000617 -0.000074  0.944132 )

     PseudoPot. # 1 for Zn read from file:
     ./GBRV_PBEsol/zn_pbesol_v1.uspp.F.UPF
     MD5 check sum: 7d8615e52efe7c1e2b1899de8658bae2
     Pseudo is Ultrasoft, Zval = 20.0
     Generated by new atomic code, or converted to UPF format
     Using radial grid of  943 points,  6 beta functions with:
                l(1) =   0
                l(2) =   0
                l(3) =   1
                l(4) =   1
                l(5) =   2
                l(6) =   2
     Q(r) pseudized with  8 coefficients,  rinner =    1.100   1.100   1.100
                                                       1.100   1.100

     PseudoPot. # 2 for O  read from file:
     ./GBRV_PBEsol/o_pbesol_v1.2.uspp.F.UPF
     MD5 check sum: 501638753501ef6325af9037351f7734
     Pseudo is Ultrasoft + core correction, Zval =  6.0
     Generated by new atomic code, or converted to UPF format
     Using radial grid of  737 points,  5 beta functions with:
                l(1) =   0
                l(2) =   0
                l(3) =   1
                l(4) =   1
                l(5) =   2
     Q(r) pseudized with  8 coefficients,  rinner =    0.900   0.900   0.900
                                                       0.900   0.900

     PseudoPot. # 3 for Mg read from file:
     ./GBRV_PBEsol/mg_pbesol_v1.4.uspp.F.UPF
     MD5 check sum: 4059f37963cf5867752dbf5ab2400678
     Pseudo is Ultrasoft, Zval = 10.0
     Generated by new atomic code, or converted to UPF format
     Using radial grid of  821 points,  7 beta functions with:
                l(1) =   0
                l(2) =   0
                l(3) =   0
                l(4) =   1
                l(5) =   1
                l(6) =   2
                l(7) =   2
     Q(r) pseudized with  8 coefficients,  rinner =    1.200   1.200   1.200
                                                       1.200   1.200

     atomic species   valence    mass     pseudopotential
        Zn            20.00    65.38000     Zn( 1.00)
        O              6.00    15.99900     O ( 1.00)
        Mg            10.00    24.30500     Mg( 1.00)

     No symmetry found

                                    s                        frac. trans.

      isym =  1     identity

 cryst.   s( 1) = (     1          0          0      )
                  (     0          1          0      )
                  (     0          0          1      )

 cart.    s( 1) = (  1.0000000  0.0000000 -0.0000000 )
                  ( -0.0000000  1.0000000 -0.0000000 )
                  (  0.0000000  0.0000000  1.0000000 )

   Cartesian axes

     site n.     atom                  positions (alat units)
         1           Zn  tau(   1) = (   0.1647120   0.0954718   0.2078329  )
         2           Zn  tau(   2) = (   0.3320790   0.3844047   0.2052132  )
         3           Zn  tau(   3) = (   0.6690750   0.3848183   0.2051876  )
         4           Zn  tau(   4) = (   0.1678470   0.0960901   0.7372997  )
         5           Zn  tau(   5) = (   0.5011901   0.0961282   0.7345505  )
         6           Zn  tau(   6) = (   0.8319612   0.0963055   0.7329174  )
         7           Zn  tau(   7) = (  -0.0002046   0.3867416   0.7341109  )
         8           Zn  tau(   8) = (   0.6662173   0.3851733   0.7353027  )
         9           Zn  tau(   9) = (   0.1654008   0.6740006   0.7349371  )
        10           Zn  tau(  10) = (   0.5002050   0.6718029   0.7327590  )
        11           Zn  tau(  11) = (   0.3320711   0.1938145   0.4716930  )
        12           Zn  tau(  12) = (   0.6671353   0.1931400   0.4693792  )
        13           Zn  tau(  13) = (   0.1670431   0.4804274   0.4701941  )
        14           Zn  tau(  14) = (   0.4994338   0.4798577   0.4687616  )
        15           Zn  tau(  15) = (  -0.0023124   0.7689245   0.4688917  )
        16           Zn  tau(  16) = (  -0.0006412   0.1924415   0.9998976  )
        17           Zn  tau(  17) = (   0.3339125   0.1902784   1.0014151  )
        18           Zn  tau(  18) = (   0.1655105   0.4818474   1.0009923  )
        19           Zn  tau(  19) = (  -0.3345861   0.7696509   0.9996010  )
        20           Zn  tau(  20) = (   0.0006899   0.7716148   1.0015546  )
        21           Mg  tau(  21) = (   0.4982255   0.0971561   0.2092373  )
        22           Mg  tau(  22) = (   0.8355017   0.0954626   0.2077967  )
        23           Mg  tau(  23) = (   0.0019994   0.3827286   0.2067701  )
        24           Mg  tau(  24) = (  -0.1676165   0.6757007   0.2046812  )
        25           Mg  tau(  25) = (   0.1669051   0.6743014   0.2075027  )
        26           Mg  tau(  26) = (   0.4998559   0.6754137   0.2078843  )
        27           Mg  tau(  27) = (   0.3337316   0.3851637   0.7371368  )
        28           Mg  tau(  28) = (  -0.1651790   0.6751293   0.7357037  )
        29           Mg  tau(  29) = (   0.0022704   0.1932812   0.4738237  )
        30           Mg  tau(  30) = (  -0.1667793   0.4822471   0.4699548  )
        31           Mg  tau(  31) = (  -0.3315930   0.7718202   0.4722079  )
        32           Mg  tau(  32) = (   0.3313163   0.7692654   0.4720584  )
        33           Mg  tau(  33) = (   0.6674667   0.1920582   1.0016283  )
        34           Mg  tau(  34) = (  -0.1649222   0.4805438   0.9991652  )
        35           Mg  tau(  35) = (   0.5021922   0.4820648   1.0028026  )
        36           Mg  tau(  36) = (   0.3349259   0.7708505   0.9980084  )
        37           O   tau(  37) = (   0.1654548   0.0953101   0.0034336  )
        38           O   tau(  38) = (   0.5004256   0.0965052   0.0063237  )
        39           O   tau(  39) = (   0.8325426   0.0947778   0.0046009  )
        40           O   tau(  40) = (  -0.0005456   0.3844431   0.0043650  )
        41           O   tau(  41) = (   0.3332828   0.3847988   0.0008484  )
        42           O   tau(  42) = (   0.6677184   0.3845976   0.0014223  )
        43           O   tau(  43) = (  -0.1673179   0.6732016   0.0014193  )
        44           O   tau(  44) = (   0.1676152   0.6748358   0.0041312  )
        45           O   tau(  45) = (   0.4983641   0.6737758   0.0051431  )
        46           O   tau(  46) = (   0.1671258   0.0960513   0.5340735  )
        47           O   tau(  47) = (   0.5000989   0.0958865   0.5305233  )
        48           O   tau(  48) = (   0.8340642   0.0956576   0.5299479  )
        49           O   tau(  49) = (  -0.0007555   0.3856472   0.5305379  )
        50           O   tau(  50) = (   0.3334862   0.3856026   0.5347608  )
        51           O   tau(  51) = (   0.6665873   0.3850750   0.5319480  )
        52           O   tau(  52) = (  -0.1677176   0.6733306   0.5332726  )
        53           O   tau(  53) = (   0.1649297   0.6734088   0.5312610  )
        54           O   tau(  54) = (   0.5000501   0.6739094   0.5290457  )
        55           O   tau(  55) = (  -0.0001940   0.1925305   0.2712907  )
        56           O   tau(  56) = (   0.3316159   0.1928922   0.2685194  )
        57           O   tau(  57) = (   0.6673360   0.1917535   0.2654932  )
        58           O   tau(  58) = (  -0.1642334   0.4827542   0.2666707  )
        59           O   tau(  59) = (   0.1666877   0.4818308   0.2670142  )
        60           O   tau(  60) = (   0.5004238   0.4809818   0.2648534  )
        61           O   tau(  61) = (  -0.3331802   0.7700120   0.2697253  )
        62           O   tau(  62) = (  -0.0006208   0.7706829   0.2657176  )
        63           O   tau(  63) = (   0.3329327   0.7703811   0.2689241  )
        64           O   tau(  64) = (  -0.0003945   0.1931229   0.7956233  )
        65           O   tau(  65) = (   0.3345820   0.1924428   0.7978189  )
        66           O   tau(  66) = (   0.6669551   0.1925657   0.7986511  )
        67           O   tau(  67) = (  -0.1665853   0.4826752   0.7964465  )
        68           O   tau(  68) = (   0.1667356   0.4816414   0.7972889  )
        69           O   tau(  69) = (   0.4998385   0.4811445   0.7997630  )
        70           O   tau(  70) = (  -0.3334938   0.7697050   0.7954613  )
        71           O   tau(  71) = (   0.0004818   0.7714589   0.7978191  )
        72           O   tau(  72) = (   0.3336335   0.7701395   0.7948876  )

   Crystallographic axes

     site n.     atom                  positions (cryst. coord.)
         1           Zn  tau(   1) = (  0.2197716  0.1102650  0.1961128  )
         2           Zn  tau(   2) = (  0.5540851  0.4437693  0.1935147  )
         3           Zn  tau(   3) = (  0.8914504  0.4445064  0.1932825  )
         4           Zn  tau(   4) = (  0.2228925  0.1109330  0.6959972  )
         5           Zn  tau(   5) = (  0.5563884  0.1112342  0.6931959  )
         6           Zn  tau(   6) = (  0.8873911  0.1116940  0.6914499  )
         7           Zn  tau(   7) = (  0.2226507  0.4461616  0.6930687  )
         8           Zn  tau(   8) = (  0.8884238  0.4448659  0.6937827  )
         9           Zn  tau(   9) = (  0.5542327  0.7777329  0.6937251  )
        10           Zn  tau(  10) = (  0.8878986  0.7754554  0.6914623  )
        11           Zn  tau(  11) = (  0.4438099  0.2238395  0.4451210  )
[...]
     atom   36 type  3   force =     0.00000000    0.00000000    0.00000000
     atom   37 type  2   force =    -0.00006046   -0.00000322    0.00004749
     atom   38 type  2   force =     0.00140891    0.00081679    0.00110710
     atom   39 type  2   force =    -0.00140082   -0.00082526    0.00055915
     atom   40 type  2   force =    -0.00138761    0.00074177    0.00107276
     atom   41 type  2   force =     0.00132530    0.00074881   -0.00062450
     atom   42 type  2   force =    -0.00000699   -0.00001409   -0.00164233
     atom   43 type  2   force =    -0.00001000   -0.00159186    0.00096022
     atom   44 type  2   force =     0.00141534    0.00081698    0.00101144
     atom   45 type  2   force =    -0.00144595   -0.00078650    0.00057618
     atom   46 type  2   force =    -0.00135541   -0.00082836   -0.00102803
     atom   47 type  2   force =    -0.00001161   -0.00005482   -0.00005757
     atom   48 type  2   force =     0.00137818   -0.00079917   -0.00119859
     atom   49 type  2   force =    -0.00141897   -0.00073862   -0.00107251
     atom   50 type  2   force =     0.00002832    0.00005380    0.00166249
     atom   51 type  2   force =     0.00134519    0.00082549   -0.00051737
     atom   52 type  2   force =    -0.00141674   -0.00086956    0.00059866
     atom   53 type  2   force =     0.00126370    0.00075783   -0.00049604
     atom   54 type  2   force =     0.00001965    0.00155626   -0.00117303
     atom   55 type  2   force =    -0.00141987    0.00081750    0.00061378
     atom   56 type  2   force =     0.00126323   -0.00080114   -0.00055807
     atom   57 type  2   force =    -0.00000243   -0.00162197   -0.00112423
     atom   58 type  2   force =     0.00145580    0.00083305    0.00048072
     atom   59 type  2   force =    -0.00138689    0.00084585   -0.00111544
     atom   60 type  2   force =     0.00001535    0.00152686   -0.00063453
     atom   61 type  2   force =     0.00001725   -0.00161432    0.00054082
     atom   62 type  2   force =     0.00004872    0.00001968   -0.00173992
     atom   63 type  2   force =    -0.00000071    0.00001444    0.00000305
     atom   64 type  2   force =    -0.00006982    0.00000901   -0.00000543
     atom   65 type  2   force =     0.00008291    0.00159595   -0.00050955
     atom   66 type  2   force =    -0.00000951    0.00005896    0.00163897
     atom   67 type  2   force =    -0.00008534    0.00159274    0.00103541
     atom   68 type  2   force =     0.00139792   -0.00079660   -0.00047983
     atom   69 type  2   force =    -0.00136436   -0.00081494    0.00115882
     atom   70 type  2   force =     0.00130834   -0.00084201   -0.00049547
     atom   71 type  2   force =    -0.00136167   -0.00072788   -0.00041097
     atom   72 type  2   force =     0.00006542    0.00000969    0.00147855
     The Hubbard contrib.    to forces
     atom    1 type  1   force =     0.00000000    0.00000000    0.00000000
     atom    2 type  1   force =     0.00000000    0.00000000    0.00000000
     atom    3 type  1   force =     0.00000000    0.00000000    0.00000000
     atom    4 type  1   force =     0.00000000    0.00000000    0.00000000
     atom    5 type  1   force =     0.00000000    0.00000000    0.00000000
     atom    6 type  1   force =     0.00000000    0.00000000    0.00000000
     atom    7 type  1   force =     0.00000000    0.00000000    0.00000000
     atom    8 type  1   force =     0.00000000    0.00000000    0.00000000
     atom    9 type  1   force =     0.00000000    0.00000000    0.00000000
     atom   10 type  1   force =     0.00000000    0.00000000    0.00000000
     atom   11 type  1   force =     0.00000000    0.00000000    0.00000000
     atom   12 type  1   force =     0.00000000    0.00000000    0.00000000
     atom   13 type  1   force =     0.00000000    0.00000000    0.00000000
     atom   14 type  1   force =     0.00000000    0.00000000    0.00000000
     atom   15 type  1   force =     0.00000000    0.00000000    0.00000000
     atom   16 type  1   force =     0.00000000    0.00000000    0.00000000
     atom   17 type  1   force =     0.00000000    0.00000000    0.00000000
     atom   18 type  1   force =     0.00000000    0.00000000    0.00000000
     atom   19 type  1   force =     0.00000000    0.00000000    0.00000000
     atom   20 type  1   force =     0.00000000    0.00000000    0.00000000
     atom   21 type  3   force =     0.00000000    0.00000000    0.00000000
     atom   22 type  3   force =     0.00000000    0.00000000    0.00000000
     atom   23 type  3   force =     0.00000000    0.00000000    0.00000000
     atom   24 type  3   force =     0.00000000    0.00000000    0.00000000
     atom   25 type  3   force =     0.00000000    0.00000000    0.00000000
     atom   26 type  3   force =     0.00000000    0.00000000    0.00000000
     atom   27 type  3   force =     0.00000000    0.00000000    0.00000000
     atom   28 type  3   force =     0.00000000    0.00000000    0.00000000
     atom   29 type  3   force =     0.00000000    0.00000000    0.00000000
     atom   30 type  3   force =     0.00000000    0.00000000    0.00000000
     atom   31 type  3   force =     0.00000000    0.00000000    0.00000000
     atom   32 type  3   force =     0.00000000    0.00000000    0.00000000
     atom   33 type  3   force =     0.00000000    0.00000000    0.00000000
     atom   34 type  3   force =     0.00000000    0.00000000    0.00000000
     atom   35 type  3   force =     0.00000000    0.00000000    0.00000000
     atom   36 type  3   force =     0.00000000    0.00000000    0.00000000
     atom   37 type  2   force =     0.00000000    0.00000000    0.00000000
     atom   38 type  2   force =     0.00000000    0.00000000    0.00000000
     atom   39 type  2   force =     0.00000000    0.00000000    0.00000000
     atom   40 type  2   force =     0.00000000    0.00000000    0.00000000
     atom   41 type  2   force =     0.00000000    0.00000000    0.00000000
     atom   42 type  2   force =     0.00000000    0.00000000    0.00000000
     atom   43 type  2   force =     0.00000000    0.00000000    0.00000000
     atom   44 type  2   force =     0.00000000    0.00000000    0.00000000
     atom   45 type  2   force =     0.00000000    0.00000000    0.00000000
     atom   46 type  2   force =     0.00000000    0.00000000    0.00000000
     atom   47 type  2   force =     0.00000000    0.00000000    0.00000000
     atom   48 type  2   force =     0.00000000    0.00000000    0.00000000
     atom   49 type  2   force =     0.00000000    0.00000000    0.00000000
     atom   50 type  2   force =     0.00000000    0.00000000    0.00000000
     atom   51 type  2   force =     0.00000000    0.00000000    0.00000000
     atom   52 type  2   force =     0.00000000    0.00000000    0.00000000
     atom   53 type  2   force =     0.00000000    0.00000000    0.00000000
     atom   54 type  2   force =     0.00000000    0.00000000    0.00000000
     atom   55 type  2   force =     0.00000000    0.00000000    0.00000000
     atom   56 type  2   force =     0.00000000    0.00000000    0.00000000
     atom   57 type  2   force =     0.00000000    0.00000000    0.00000000
     atom   58 type  2   force =     0.00000000    0.00000000    0.00000000
     atom   59 type  2   force =     0.00000000    0.00000000    0.00000000
     atom   60 type  2   force =     0.00000000    0.00000000    0.00000000
     atom   61 type  2   force =     0.00000000    0.00000000    0.00000000
     atom   62 type  2   force =     0.00000000    0.00000000    0.00000000
     atom   63 type  2   force =     0.00000000    0.00000000    0.00000000
     atom   64 type  2   force =     0.00000000    0.00000000    0.00000000
     atom   65 type  2   force =     0.00000000    0.00000000    0.00000000
     atom   66 type  2   force =     0.00000000    0.00000000    0.00000000
     atom   67 type  2   force =     0.00000000    0.00000000    0.00000000
     atom   68 type  2   force =     0.00000000    0.00000000    0.00000000
     atom   69 type  2   force =     0.00000000    0.00000000    0.00000000
     atom   70 type  2   force =     0.00000000    0.00000000    0.00000000
     atom   71 type  2   force =     0.00000000    0.00000000    0.00000000
     atom   72 type  2   force =     0.00000000    0.00000000    0.00000000
     The SCF correction term to forces
     atom    1 type  1   force =     0.00000129    0.00001009   -0.00002468
     atom    2 type  1   force =    -0.00001025   -0.00000020   -0.00001471
     atom    3 type  1   force =     0.00000383   -0.00000751   -0.00000905
     atom    4 type  1   force =     0.00001571    0.00001977    0.00001046
     atom    5 type  1   force =    -0.00002425    0.00001418    0.00000743
     atom    6 type  1   force =     0.00000256    0.00000808    0.00000446
     atom    7 type  1   force =     0.00001617   -0.00000742    0.00000536
     atom    8 type  1   force =    -0.00001255   -0.00000343   -0.00000122
     atom    9 type  1   force =    -0.00000627   -0.00000709    0.00000318
     atom   10 type  1   force =     0.00000073   -0.00000892    0.00000224
     atom   11 type  1   force =    -0.00000966    0.00002021    0.00003809
     atom   12 type  1   force =     0.00001607    0.00000985    0.00002457
     atom   13 type  1   force =     0.00000790   -0.00001157    0.00001775
     atom   14 type  1   force =    -0.00000376   -0.00000187    0.00004020
     atom   15 type  1   force =    -0.00000183   -0.00000622    0.00002047
     atom   16 type  1   force =     0.00002101   -0.00000008   -0.00001016
     atom   17 type  1   force =    -0.00001441    0.00000605   -0.00003393
     atom   18 type  1   force =     0.00001015   -0.00001073   -0.00001439
     atom   19 type  1   force =     0.00001020    0.00001317   -0.00000346
     atom   20 type  1   force =    -0.00000964   -0.00000113   -0.00001270
     atom   21 type  3   force =     0.00000284    0.00000203   -0.00001024
     atom   22 type  3   force =    -0.00000417    0.00001410   -0.00000887
     atom   23 type  3   force =     0.00000582    0.00000359   -0.00000375
     atom   24 type  3   force =     0.00000559   -0.00000294   -0.00001082
     atom   25 type  3   force =    -0.00001192   -0.00001164   -0.00001580
     atom   26 type  3   force =     0.00000665   -0.00000870   -0.00001213
     atom   27 type  3   force =    -0.00000119   -0.00001476   -0.00000331
     atom   28 type  3   force =     0.00000335    0.00000847    0.00000647
     atom   29 type  3   force =    -0.00000551   -0.00000378    0.00001068
     atom   30 type  3   force =    -0.00000219   -0.00000370    0.00001650
     atom   31 type  3   force =    -0.00000838   -0.00000161    0.00001556
     atom   32 type  3   force =     0.00000910    0.00000411    0.00002146
     atom   33 type  3   force =    -0.00000514    0.00000056   -0.00001193
     atom   34 type  3   force =     0.00000247    0.00000433   -0.00000647
     atom   35 type  3   force =    -0.00000821   -0.00000534   -0.00001332
     atom   36 type  3   force =    -0.00000240   -0.00000448    0.00000605
     atom   37 type  2   force =     0.00000269    0.00000385   -0.00001039
     atom   38 type  2   force =    -0.00000284    0.00000358   -0.00000780
     atom   39 type  2   force =     0.00000051   -0.00000058   -0.00000353
     atom   40 type  2   force =     0.00000145   -0.00000143   -0.00000566
     atom   41 type  2   force =    -0.00000075   -0.00000360   -0.00001219
     atom   42 type  2   force =    -0.00000005   -0.00000027   -0.00001043
     atom   43 type  2   force =    -0.00000013   -0.00000076   -0.00000668
     atom   44 type  2   force =     0.00000321   -0.00000058   -0.00000419
     atom   45 type  2   force =    -0.00000250   -0.00000004   -0.00000537
     atom   46 type  2   force =    -0.00000183    0.00000217    0.00001216
     atom   47 type  2   force =    -0.00000133    0.00000407    0.00002022
     atom   48 type  2   force =     0.00000438    0.00000020    0.00000724
     atom   49 type  2   force =    -0.00000059   -0.00000361    0.00000651
     atom   50 type  2   force =     0.00000024   -0.00000265    0.00001475
     atom   51 type  2   force =    -0.00000040   -0.00000080    0.00001072
     atom   52 type  2   force =    -0.00000347   -0.00000184    0.00000878
     atom   53 type  2   force =     0.00000467   -0.00000036    0.00000769
     atom   54 type  2   force =    -0.00000104    0.00000269    0.00000770
     atom   55 type  2   force =     0.00000021    0.00000318    0.00000091
     atom   56 type  2   force =    -0.00000217    0.00000159   -0.00000219
     atom   57 type  2   force =     0.00000141    0.00000177   -0.00000342
     atom   58 type  2   force =     0.00000371   -0.00000023    0.00000193
     atom   59 type  2   force =    -0.00000323   -0.00000340   -0.00000256
     atom   60 type  2   force =     0.00000042   -0.00000060   -0.00000210
     atom   61 type  2   force =     0.00000174   -0.00000048    0.00000072
     atom   62 type  2   force =    -0.00000230   -0.00000214   -0.00000375
     atom   63 type  2   force =     0.00000037    0.00000109    0.00000016
     atom   64 type  2   force =     0.00000750    0.00000030   -0.00000133
     atom   65 type  2   force =     0.00000019   -0.00000153   -0.00000400
     atom   66 type  2   force =    -0.00000873   -0.00000231   -0.00000469
     atom   67 type  2   force =     0.00000080    0.00000267   -0.00000124
     atom   68 type  2   force =     0.00000307   -0.00000671   -0.00000215
     atom   69 type  2   force =    -0.00000403   -0.00000505   -0.00000292
     atom   70 type  2   force =     0.00000585    0.00000546   -0.00000154
     atom   71 type  2   force =    -0.00000583    0.00000805   -0.00000333
     atom   72 type  2   force =     0.00000047   -0.00000067    0.00000112

     Total force =     0.000122     Total SCF correction =     0.000135
     SCF correction compared to forces is large: reduce conv_thr to get better values

     Computing stress (Cartesian axis) and pressure

          total   stress  (Ry/bohr**3)                   (kbar)     P=    0.01
   0.00000019  -0.00000001   0.00000001          0.03     -0.00      0.00
  -0.00000001   0.00000020   0.00000000         -0.00      0.03      0.00
   0.00000001   0.00000000  -0.00000010          0.00      0.00     -0.01

     kinetic stress (kbar)  27185.82     -0.33      0.86
                               -0.33  27185.93      0.44
                                0.86      0.44  27223.06

     local   stress (kbar) -11799.22   1774.70  -1951.97
                             1774.70 -13296.54    -86.93
                            -1951.97    -86.93 -12004.71

     nonloc. stress (kbar)   1393.53     -0.28     -0.26
                               -0.28   1394.05     -0.26
                               -0.26     -0.26   1376.28

     hartree stress (kbar)  46254.31   -863.65    954.34
                             -863.65  46974.50     43.57
                              954.34     43.57  46331.90

     exc-cor stress (kbar) -10832.80     -0.02      0.01
                               -0.02 -10832.77      0.00
                                0.01      0.00 -10833.31

     corecor stress (kbar)   -248.44      0.00     -0.00
                                0.00   -248.44     -0.00
                               -0.00     -0.00   -248.49

     ewald   stress (kbar) -51953.17   -910.42    997.02
                             -910.42 -51176.70     43.18
                              997.02     43.18 -51844.75

     hubbard stress (kbar)      0.00      0.00      0.00
                                0.00      0.00      0.00
                                0.00      0.00      0.00

     london  stress (kbar)      0.00      0.00      0.00
                                0.00      0.00      0.00
                                0.00      0.00      0.00

     DFT-D3  stress (kbar)      0.00      0.00      0.00
                                0.00      0.00      0.00
                                0.00      0.00      0.00

     XDM     stress (kbar)      0.00      0.00      0.00
                                0.00      0.00      0.00
                                0.00      0.00      0.00

     dft-nl  stress (kbar)      0.00      0.00      0.00
                                0.00      0.00      0.00
                                0.00      0.00      0.00

     TS-vdW  stress (kbar)      0.00      0.00      0.00
                                0.00      0.00      0.00
                                0.00      0.00      0.00

     Writing output data file ZnO.save/

     General routines

     Parallel routines

   This run was terminated on:  16:23: 4   8Nov2021

   JOB DONE.