     Program PWSCF v.6.4.1 starts on 16Jun2022 at 15:13:22

     K-points division:     npool     =       4
     R & G space division:  proc/nbgrp/npool/nimage =      16
     Waiting for input...
     Reading input from standard input
Warning: card &IONS ignored
Warning: card   UPSCALE           = 100.D0, ignored
Warning: card / ignored
Warning: card &CELL ignored
Warning: card   CELL_DYNAMICS     = 'BFGS' ignored
Warning: card   PRESS_CONV_THR    = 0.5D0 ignored
Warning: card   CELL_DOFREE = 'ALL' ignored
Warning: card / ignored

     Current dimensions of program PWSCF are:
     Max number of different atomic species (ntypx) = 10
     Max number of k-points (npk) =  40000
     Max angular momentum in pseudopotentials (lmaxx) =  3

NOTICE: Bravais lattice has wrong number (10) of symmetries - symmetries are disabled

     bravais-lattice index     =            0
     lattice parameter (alat)  =       6.4241  a.u.
     unit-cell volume          =     306.9750 (a.u.)^3
     number of atoms/cell      =            4
     number of atomic types    =            2
     number of electrons       =        52.00
     number of Kohn-Sham states=           26
     kinetic-energy cutoff     =      80.0000  Ry
     charge density cutoff     =     600.0000  Ry
     convergence threshold     =      1.0E-06
     mixing beta               =       0.5000
     number of iterations used =            8  plain     mixing
     Exchange-correlation      = SLA  PW   PSX  PSC ( 1  4 10  8 0 0)

     celldm(1)=   6.424129  celldm(2)=   0.000000  celldm(3)=   0.000000
     celldm(4)=   0.000000  celldm(5)=   0.000000  celldm(6)=   0.000000

     crystal axes: (cart. coord. in units of alat)
               a(1) = (   1.000000   0.000000   0.000001 )
               a(2) = (  -0.500000   0.866025  -0.000000 )
               a(3) = (   0.000000   0.000000   1.336995 )

     reciprocal axes: (cart. coord. in units 2 pi/alat)
               b(1) = (  1.000000  0.577350 -0.000000 )
               b(2) = ( -0.000000  1.154701 -0.000000 )
               b(3) = ( -0.000000 -0.000000  0.747946 )

     PseudoPot. # 1 for Zn read from file:
     ./GBRV_PBEsol/zn_pbesol_v1.uspp.F.UPF
     MD5 check sum: 7d8615e52efe7c1e2b1899de8658bae2
     Pseudo is Ultrasoft, Zval = 20.0
     Generated by new atomic code, or converted to UPF format
     Using radial grid of  943 points,  6 beta functions with:
                l(1) =   0
                l(2) =   0
                l(3) =   1
                l(4) =   1
                l(5) =   2
                l(6) =   2
     Q(r) pseudized with  8 coefficients,  rinner =    1.100   1.100   1.100
                                                       1.100   1.100

     PseudoPot. # 2 for O  read from file:
     ./GBRV_PBEsol/o_pbesol_v1.2.uspp.F.UPF
     MD5 check sum: 501638753501ef6325af9037351f7734
     Pseudo is Ultrasoft + core correction, Zval =  6.0
     Generated by new atomic code, or converted to UPF format
     Using radial grid of  737 points,  5 beta functions with:
                l(1) =   0
                l(2) =   0
                l(3) =   1
                l(4) =   1
                l(5) =   2
     Q(r) pseudized with  8 coefficients,  rinner =    0.900   0.900   0.900
                                                       0.900   0.900

     atomic species   valence    mass     pseudopotential
        Zn            20.00    65.38000     Zn( 1.00)
        O              6.00    15.99900     O ( 1.00)

     No symmetry found

                                    s                        frac. trans.

      isym =  1     identity

 cryst.   s( 1) = (     1          0          0      )
                  (     0          1          0      )
                  (     0          0          1      )

 cart.    s( 1) = (  1.0000000  0.0000000  0.0000000 )
                  (  0.0000000  1.0000000 -0.0000000 )
                  ( -0.0000000 -0.0000000  1.0000000 )

   Cartesian axes

     site n.     atom                  positions (alat units)
         1           O   tau(   1) = (   0.5000003   0.2886756   0.0098217  )
         2           O   tau(   2) = (   0.0000005   0.5773493   0.6783189  )
         3           Zn  tau(   3) = (   0.5000003   0.2886750   0.6502535  )
         4           Zn  tau(   4) = (   0.0000004   0.5773512   1.3187507  )

   Crystallographic axes

     site n.     atom                  positions (cryst. coord.)
         1           O   tau(   1) = (  0.6666670  0.3333337  0.0073459  )
         2           O   tau(   2) = (  0.3333329  0.6666657  0.5073458  )
         3           Zn  tau(   3) = (  0.6666664  0.3333329  0.4863542  )
         4           Zn  tau(   4) = (  0.3333337  0.6666677  0.9863542  )

     number of k points=   260
                       cart. coord. in units 2pi/alat
        k(    1) = (   0.0000000   0.0000000   0.0000000), wk =   0.0039062
        k(    2) = (  -0.0000000  -0.0000000   0.0934932), wk =   0.0078125
        k(    3) = (  -0.0000001  -0.0000000   0.1869865), wk =   0.0078125
        k(    4) = (  -0.0000001  -0.0000001   0.2804797), wk =   0.0078125
        k(    5) = (   0.0000002   0.0000001  -0.3739730), wk =   0.0039062
        k(    6) = (  -0.0000001   0.1443376  -0.0000000), wk =   0.0078125
        k(    7) = (  -0.0000001   0.1443376   0.0934932), wk =   0.0078125
        k(    8) = (  -0.0000002   0.1443376   0.1869865), wk =   0.0078125
        k(    9) = (  -0.0000002   0.1443375   0.2804797), wk =   0.0078125
        k(   10) = (   0.0000001   0.1443377  -0.3739730), wk =   0.0078125
        k(   11) = (   0.0000001   0.1443377  -0.2804798), wk =   0.0078125
        k(   12) = (   0.0000000   0.1443376  -0.1869865), wk =   0.0078125
        k(   13) = (  -0.0000000   0.1443376  -0.0934933), wk =   0.0078125
        k(   14) = (  -0.0000001   0.2886752  -0.0000000), wk =   0.0078125
        k(   15) = (  -0.0000002   0.2886752   0.0934932), wk =   0.0078125
        k(   16) = (  -0.0000002   0.2886752   0.1869865), wk =   0.0078125
        k(   17) = (  -0.0000003   0.2886751   0.2804797), wk =   0.0078125
        k(   18) = (   0.0000001   0.2886753  -0.3739730), wk =   0.0078125
        k(   19) = (   0.0000000   0.2886753  -0.2804798), wk =   0.0078125
        k(   20) = (  -0.0000000   0.2886753  -0.1869865), wk =   0.0078125
        k(   21) = (  -0.0000001   0.2886752  -0.0934933), wk =   0.0078125
        k(   22) = (  -0.0000002   0.4330128  -0.0000001), wk =   0.0078125
        k(   23) = (  -0.0000002   0.4330128   0.0934932), wk =   0.0078125
        k(   24) = (  -0.0000003   0.4330128   0.1869864), wk =   0.0078125
        k(   25) = (  -0.0000003   0.4330128   0.2804797), wk =   0.0078125
        k(   26) = (   0.0000000   0.4330129  -0.3739730), wk =   0.0078125
        k(   27) = (  -0.0000000   0.4330129  -0.2804798), wk =   0.0078125
        k(   28) = (  -0.0000001   0.4330129  -0.1869865), wk =   0.0078125
        k(   29) = (  -0.0000001   0.4330128  -0.0934933), wk =   0.0078125
        k(   30) = (   0.0000002  -0.5773504   0.0000001), wk =   0.0039062
        k(   31) = (   0.0000002  -0.5773504   0.0934933), wk =   0.0078125
        k(   32) = (   0.0000001  -0.5773505   0.1869866), wk =   0.0078125
        k(   33) = (   0.0000001  -0.5773505   0.2804798), wk =   0.0078125
        k(   34) = (   0.0000004  -0.5773503  -0.3739729), wk =   0.0039062
        k(   35) = (   0.1250000   0.0721688  -0.0000000), wk =   0.0078125
        k(   36) = (   0.1249999   0.0721687   0.0934932), wk =   0.0078125
        k(   37) = (   0.1249999   0.0721687   0.1869864), wk =   0.0078125
        k(   38) = (   0.1249998   0.0721687   0.2804797), wk =   0.0078125
        k(   39) = (   0.1250002   0.0721688  -0.3739730), wk =   0.0078125
        k(   40) = (   0.1250001   0.0721688  -0.2804798), wk =   0.0078125
        k(   41) = (   0.1250001   0.0721688  -0.1869865), wk =   0.0078125
        k(   42) = (   0.1250000   0.0721688  -0.0934933), wk =   0.0078125
        k(   43) = (   0.1249999   0.2165064  -0.0000001), wk =   0.0078125
        k(   44) = (   0.1249999   0.2165063   0.0934932), wk =   0.0078125
        k(   45) = (   0.1249998   0.2165063   0.1869864), wk =   0.0078125
        k(   46) = (   0.1249998   0.2165063   0.2804797), wk =   0.0078125
        k(   47) = (   0.1250001   0.2165064  -0.3739730), wk =   0.0078125
        k(   48) = (   0.1250001   0.2165064  -0.2804798), wk =   0.0078125
        k(   49) = (   0.1250000   0.2165064  -0.1869866), wk =   0.0078125
        k(   50) = (   0.1250000   0.2165064  -0.0934933), wk =   0.0078125
        k(   51) = (   0.1249999   0.3608440  -0.0000001), wk =   0.0078125
        k(   52) = (   0.1249998   0.3608439   0.0934932), wk =   0.0078125
        k(   53) = (   0.1249998   0.3608439   0.1869864), wk =   0.0078125
        k(   54) = (   0.1249997   0.3608439   0.2804797), wk =   0.0078125
        k(   55) = (   0.1250000   0.3608441  -0.3739731), wk =   0.0078125
        k(   56) = (   0.1250000   0.3608440  -0.2804798), wk =   0.0078125
        k(   57) = (   0.1250000   0.3608440  -0.1869866), wk =   0.0078125
        k(   58) = (   0.1249999   0.3608440  -0.0934933), wk =   0.0078125
        k(   59) = (   0.1249998   0.5051816  -0.0000001), wk =   0.0078125
        k(   60) = (   0.1249998   0.5051815   0.0934931), wk =   0.0078125
[...]
        k(  246) = (  -0.4999999   0.0000002  -0.1869863), wk =   0.0078125
        k(  247) = (  -0.5000000   0.0000002  -0.0934931), wk =   0.0078125
        k(  248) = (  -0.5000001   0.1443378   0.0000001), wk =   0.0078125
        k(  249) = (  -0.5000001   0.1443378   0.0934934), wk =   0.0078125
        k(  250) = (  -0.5000002   0.1443378   0.1869866), wk =   0.0078125
        k(  251) = (  -0.5000002   0.1443377   0.2804799), wk =   0.0078125
        k(  252) = (  -0.4999999   0.1443379  -0.3739728), wk =   0.0078125
        k(  253) = (  -0.4999999   0.1443379  -0.2804796), wk =   0.0078125
        k(  254) = (  -0.5000000   0.1443378  -0.1869864), wk =   0.0078125
        k(  255) = (  -0.5000000   0.1443378  -0.0934931), wk =   0.0078125
        k(  256) = (  -0.4999997  -0.8660254   0.0000003), wk =   0.0039062
        k(  257) = (  -0.4999997  -0.8660255   0.0934935), wk =   0.0078125
        k(  258) = (  -0.4999998  -0.8660255   0.1869868), wk =   0.0078125
        k(  259) = (  -0.4999998  -0.8660255   0.2804800), wk =   0.0078125
        k(  260) = (  -0.4999995  -0.8660254  -0.3739727), wk =   0.0039062

                       cryst. coord.
        k(    1) = (   0.0000000   0.0000000   0.0000000), wk =   0.0039062
        k(    2) = (  -0.0000000  -0.0000000   0.1250000), wk =   0.0078125
        k(    3) = (  -0.0000000  -0.0000000   0.2500000), wk =   0.0078125
        k(    4) = (  -0.0000000  -0.0000000   0.3750000), wk =   0.0078125
        k(    5) = (   0.0000000   0.0000000  -0.5000000), wk =   0.0039062
        k(    6) = (  -0.0000000   0.1250000   0.0000000), wk =   0.0078125
        k(    7) = (  -0.0000000   0.1250000   0.1250000), wk =   0.0078125
        k(    8) = (  -0.0000000   0.1250000   0.2500000), wk =   0.0078125
        k(    9) = (  -0.0000000   0.1250000   0.3750000), wk =   0.0078125
        k(   10) = (   0.0000000   0.1250000  -0.5000000), wk =   0.0078125
        k(   11) = (   0.0000000   0.1250000  -0.3750000), wk =   0.0078125
        k(   12) = (   0.0000000   0.1250000  -0.2500000), wk =   0.0078125
        k(   13) = (   0.0000000   0.1250000  -0.1250000), wk =   0.0078125
        k(   14) = (  -0.0000000   0.2500000   0.0000000), wk =   0.0078125
        k(   15) = (   0.0000000   0.2500000   0.1250000), wk =   0.0078125
        k(   16) = (  -0.0000000   0.2500000   0.2500000), wk =   0.0078125
        k(   17) = (  -0.0000000   0.2500000   0.3750000), wk =   0.0078125
        k(   18) = (   0.0000000   0.2500000  -0.5000000), wk =   0.0078125
        k(   19) = (   0.0000000   0.2500000  -0.3750000), wk =   0.0078125
        k(   20) = (   0.0000000   0.2500000  -0.2500000), wk =   0.0078125
        k(   21) = (   0.0000000   0.2500000  -0.1250000), wk =   0.0078125
        k(   22) = (   0.0000000   0.3750000   0.0000000), wk =   0.0078125
        k(   23) = (  -0.0000000   0.3750000   0.1250000), wk =   0.0078125
        k(   24) = (  -0.0000000   0.3750000   0.2500000), wk =   0.0078125
        k(   25) = (  -0.0000000   0.3750000   0.3750000), wk =   0.0078125
        k(   26) = (   0.0000000   0.3750000  -0.5000000), wk =   0.0078125
        k(   27) = (   0.0000000   0.3750000  -0.3750000), wk =   0.0078125
        k(   28) = (   0.0000000   0.3750000  -0.2500000), wk =   0.0078125
        k(   29) = (   0.0000000   0.3750000  -0.1250000), wk =   0.0078125
        k(   30) = (   0.0000000  -0.5000000  -0.0000000), wk =   0.0039062
        k(   31) = (   0.0000000  -0.5000000   0.1250000), wk =   0.0078125
        k(   32) = (  -0.0000000  -0.5000000   0.2500000), wk =   0.0078125
        k(   33) = (  -0.0000000  -0.5000000   0.3750000), wk =   0.0078125
        k(   34) = (   0.0000000  -0.5000000  -0.5000000), wk =   0.0039062
        k(   35) = (   0.1250000  -0.0000000   0.0000000), wk =   0.0078125
        k(   36) = (   0.1250000  -0.0000000   0.1250000), wk =   0.0078125
        k(   37) = (   0.1250000  -0.0000000   0.2500000), wk =   0.0078125
        k(   38) = (   0.1250000  -0.0000000   0.3750000), wk =   0.0078125
        k(   39) = (   0.1250000   0.0000000  -0.5000000), wk =   0.0078125
        k(   40) = (   0.1250000   0.0000000  -0.3750000), wk =   0.0078125
        k(   41) = (   0.1250000  -0.0000000  -0.2500000), wk =   0.0078125
        k(   42) = (   0.1250000   0.0000000  -0.1250000), wk =   0.0078125
        k(   43) = (   0.1250000   0.1250000  -0.0000000), wk =   0.0078125
        k(   44) = (   0.1250000   0.1250000   0.1250000), wk =   0.0078125
        k(   45) = (   0.1250000   0.1250000   0.2500000), wk =   0.0078125
        k(   46) = (   0.1250000   0.1250000   0.3750000), wk =   0.0078125
        k(   47) = (   0.1250000   0.1250000  -0.5000000), wk =   0.0078125
        k(   48) = (   0.1250000   0.1250000  -0.3750000), wk =   0.0078125
        k(   49) = (   0.1250000   0.1250000  -0.2500000), wk =   0.0078125
        k(   50) = (   0.1250000   0.1250000  -0.1250000), wk =   0.0078125
        k(   51) = (   0.1250000   0.2500000   0.0000000), wk =   0.0078125
        k(   52) = (   0.1250000   0.2500000   0.1250000), wk =   0.0078125
        k(   53) = (   0.1250000   0.2500000   0.2500000), wk =   0.0078125
        k(   54) = (   0.1250000   0.2500000   0.3750000), wk =   0.0078125
        k(   55) = (   0.1250000   0.2500000  -0.5000000), wk =   0.0078125
        k(   56) = (   0.1250000   0.2500000  -0.3750000), wk =   0.0078125
        k(   57) = (   0.1250000   0.2500000  -0.2500000), wk =   0.0078125
        k(   58) = (   0.1250000   0.2500000  -0.1250000), wk =   0.0078125
        k(   59) = (   0.1250000   0.3750000   0.0000000), wk =   0.0078125
        k(   60) = (   0.1250000   0.3750000   0.1250000), wk =   0.0078125
[...]
        k(  246) = (  -0.5000000   0.2500000  -0.2500000), wk =   0.0078125
        k(  247) = (  -0.5000000   0.2500000  -0.1250000), wk =   0.0078125
        k(  248) = (  -0.5000000   0.3750000  -0.0000000), wk =   0.0078125
        k(  249) = (  -0.5000000   0.3750000   0.1250000), wk =   0.0078125
        k(  250) = (  -0.5000000   0.3750000   0.2500000), wk =   0.0078125
        k(  251) = (  -0.5000000   0.3750000   0.3750000), wk =   0.0078125
        k(  252) = (  -0.5000000   0.3750000  -0.5000000), wk =   0.0078125
        k(  253) = (  -0.5000000   0.3750000  -0.3750000), wk =   0.0078125
        k(  254) = (  -0.5000000   0.3750000  -0.2500000), wk =   0.0078125
        k(  255) = (  -0.5000000   0.3750000  -0.1250000), wk =   0.0078125
        k(  256) = (  -0.5000000  -0.5000000   0.0000000), wk =   0.0039062
        k(  257) = (  -0.5000000  -0.5000000   0.1250000), wk =   0.0078125
        k(  258) = (  -0.5000000  -0.5000000   0.2500000), wk =   0.0078125
        k(  259) = (  -0.5000000  -0.5000000   0.3750000), wk =   0.0078125
        k(  260) = (  -0.5000000  -0.5000000  -0.5000000), wk =   0.0039062

     Check: negative core charge=   -0.000003

     Initial potential from superposition of free atoms

     starting charge   51.99974, renormalised to   52.00000
     Starting wfcs are   34 randomized atomic wfcs

     Self-consistent Calculation

     iteration #  1     ecut=    80.00 Ry     beta= 0.50
     Davidson diagonalization with overlap
     ethr =  1.00E-02,  avg # of iterations =  1.0

     total energy              =    -986.75638920 Ry
     Harris-Foulkes estimate   =    -987.27123866 Ry
     estimated scf accuracy    <       0.80926770 Ry

[...]

     total energy              =    -987.06314046 Ry
     Harris-Foulkes estimate   =    -987.06314024 Ry
     estimated scf accuracy    <       0.00000403 Ry

     iteration #  7     ecut=    80.00 Ry     beta= 0.50
     Davidson diagonalization with overlap
     ethr =  7.76E-09,  avg # of iterations =  2.0

     End of self-consistent calculation

          k = 0.0000 0.0000 0.0000 (  3655 PWs)   bands (ev):

  -113.8036-113.8030 -68.1882 -68.1813 -68.1532 -68.1532 -68.1511 -68.1511
    -8.7781  -7.5932   3.4109   3.4109   3.5113   3.5114   4.1964   4.6456
     4.6456   4.6949   5.0313   5.0313   5.4281   8.4112   8.5047   8.5047
     9.2280   9.2280

     occupation numbers
     1.0000   1.0000   1.0000   1.0000   1.0000   1.0000   1.0000   1.0000
     1.0000   1.0000   1.0000   1.0000   1.0000   1.0000   1.0000   1.0000
     1.0000   1.0000   1.0000   1.0000   1.0000   1.0000   1.0000   1.0000
     1.0000   1.0000

          k =-0.0000-0.0000 0.0935 (  3667 PWs)   bands (ev):

[...]

          k = 0.3750 0.0722-0.0935 (  3713 PWs)   bands (ev):

[...]

          k =-0.5000-0.8660-0.3740 (  3716 PWs)   bands (ev):

  -113.8034-113.8032 -68.1850 -68.1848 -68.1534 -68.1532 -68.1526 -68.1524
    -7.7743  -7.7743   2.9457   2.9457   3.8958   3.8959   4.0995   4.0995
     4.8724   4.8725   4.9908   4.9909   5.6969   5.6969   7.3755   7.3756
     8.8463   8.8463

     occupation numbers
     1.0000   1.0000   1.0000   1.0000   1.0000   1.0000   1.0000   1.0000
     1.0000   1.0000   1.0000   1.0000   1.0000   1.0000   1.0000   1.0000
     1.0000   1.0000   1.0000   1.0000   1.0000   1.0000   1.0000   1.0000
     1.0000   1.0000

     highest occupied level (ev):     9.2280

!    total energy              =    -987.06314074 Ry
     Harris-Foulkes estimate   =    -987.06314077 Ry
     estimated scf accuracy    <       0.00000007 Ry

     The total energy is the sum of the following terms:

     one-electron contribution =    -791.15699766 Ry
     hartree contribution      =     418.06989162 Ry
     xc contribution           =     -98.10356247 Ry
     ewald contribution        =    -515.87247223 Ry

     convergence has been achieved in   7 iterations

     Forces acting on atoms (cartesian axes, Ry/au):

     atom    1 type  2   force =     0.00000024   -0.00000037    0.00288685
     atom    2 type  2   force =    -0.00000157   -0.00000038    0.00289006
     atom    3 type  1   force =     0.00000421    0.00000091   -0.00288631
     atom    4 type  1   force =    -0.00000288   -0.00000016   -0.00289060
     The non-local contrib.  to forces
     atom    1 type  2   force =     0.00000029   -0.00000403    0.04617626
     atom    2 type  2   force =     0.00000141    0.00000095    0.04617673
     atom    3 type  1   force =     0.00000503   -0.00000419    0.10681324
     atom    4 type  1   force =    -0.00000048   -0.00000471    0.10680837
     The ionic contribution  to forces
     atom    1 type  2   force =     0.00000446    0.00005418   -0.63886401
     atom    2 type  2   force =    -0.00003155   -0.00000182   -0.63886286
     atom    3 type  1   force =     0.00004117   -0.00000261    0.63886820
     atom    4 type  1   force =    -0.00001408   -0.00004975    0.63885866
     The local contribution  to forces
     atom    1 type  2   force =    -0.00000538   -0.00004915    0.59590514
     atom    2 type  2   force =     0.00003001    0.00000138    0.59589904
     atom    3 type  1   force =    -0.00004590    0.00000479   -0.74867425
     atom    4 type  1   force =     0.00001536    0.00005328   -0.74865262
     The core correction contribution to forces
     atom    1 type  2   force =    -0.00000000    0.00000002   -0.00024352
     atom    2 type  2   force =    -0.00000001   -0.00000002   -0.00024353
     atom    3 type  1   force =     0.00000000    0.00000000    0.00000000
     atom    4 type  1   force =     0.00000000    0.00000000    0.00000000
     The Hubbard contrib.    to forces
     atom    1 type  2   force =     0.00000000    0.00000000    0.00000000
     atom    2 type  2   force =     0.00000000    0.00000000    0.00000000
     atom    3 type  1   force =     0.00000000    0.00000000    0.00000000
     atom    4 type  1   force =     0.00000000    0.00000000    0.00000000
     The SCF correction term to forces
     atom    1 type  2   force =     0.00000000    0.00000000    0.00000000
     atom    2 type  2   force =     0.00000000    0.00000000    0.00000000
     atom    3 type  1   force =     0.00000000    0.00000000    0.00000000
     atom    4 type  1   force =     0.00000000    0.00000000    0.00000000

     Total force =     0.000000     Total SCF correction =     0.000000

     Computing stress (Cartesian axis) and pressure

          total   stress  (Ry/bohr**3)                   (kbar)     P=   -0.18
   0.00000162  -0.00000000  -0.00000001          0.24     -0.00     -0.00
  -0.00000000   0.00000163  -0.00000000         -0.00      0.24     -0.00
  -0.00000001  -0.00000000  -0.00000699         -0.00     -0.00     -1.03

     kinetic stress (kbar)  35083.29     -0.00     -0.00
                               -0.00  35083.28     -0.00
                               -0.00     -0.00  35472.65

     local   stress (kbar)   2152.35     -0.00     -0.00
                               -0.00   2152.10     -0.02
                               -0.00     -0.02 -12847.49

     nonloc. stress (kbar)  -1733.14      0.00      0.00
                                0.00  -1733.14      0.00
                                0.00      0.00  -1876.75

     hartree stress (kbar)  64172.39      0.00      0.00
                                0.00  64172.50      0.01
                                0.00      0.01  71997.79

     exc-cor stress (kbar) -14701.78      0.00      0.00
                                0.00 -14701.78      0.00
                                0.00      0.00 -14706.12

     corecor stress (kbar)   -258.49      0.00      0.00
                                0.00   -258.49      0.00
                                0.00      0.00   -259.21

     ewald   stress (kbar) -84714.39      0.00      0.00
                                0.00 -84714.24      0.01
                                0.00      0.01 -77781.90

     hubbard stress (kbar)      0.00      0.00      0.00
                                0.00      0.00      0.00
                                0.00      0.00      0.00

     london  stress (kbar)      0.00      0.00      0.00
                                0.00      0.00      0.00
                                0.00      0.00      0.00

     DFT-D3  stress (kbar)      0.00      0.00      0.00
                                0.00      0.00      0.00
                                0.00      0.00      0.00

     XDM     stress (kbar)      0.00      0.00      0.00
                                0.00      0.00      0.00
                                0.00      0.00      0.00

     dft-nl  stress (kbar)      0.00      0.00      0.00
                                0.00      0.00      0.00
                                0.00      0.00      0.00

     TS-vdW  stress (kbar)      0.00      0.00      0.00
                                0.00      0.00      0.00
                                0.00      0.00      0.00

     Writing output data file ZnO.save/

     General routines

     Parallel routines

   This run was terminated on:  15:13:33  16Jun2022

   JOB DONE.