     Program PWSCF v.6.4.1 starts on  8Nov2021 at 19:33: 1

     K-points division:     npool     =       8
     R & G space division:  proc/nbgrp/npool/nimage =      32
     Waiting for input...
     Reading input from standard input
Warning: card &CELL ignored
Warning: card   CELL_DYNAMICS     = 'BFGS' ignored
Warning: card   PRESS_CONV_THR    = 0.5D0 ignored
Warning: card   CELL_DOFREE = 'Z' ignored
Warning: card / ignored

     Current dimensions of program PWSCF are:
     Max number of different atomic species (ntypx) = 10
     Max number of k-points (npk) =  40000
     Max angular momentum in pseudopotentials (lmaxx) =  3

     bravais-lattice index     =            0
     lattice parameter (alat)  =      18.3818  a.u.
     unit-cell volume          =    5266.6768 (a.u.)^3
     number of atoms/cell      =           72
     number of atomic types    =            3
     number of electrons       =       856.00
     number of Kohn-Sham states=          514
     kinetic-energy cutoff     =      60.0000  Ry
     charge density cutoff     =     500.0000  Ry
     convergence threshold     =      1.0E-08
     mixing beta               =       0.5000
     number of iterations used =            8  plain     mixing
     Exchange-correlation      = SLA  PW   PSX  PSC ( 1  4 10  8 0 0)
     nstep                     =          200

     celldm(1)=  18.381787  celldm(2)=   0.000000  celldm(3)=   0.000000
     celldm(4)=   0.000000  celldm(5)=   0.000000  celldm(6)=   0.000000

     crystal axes: (cart. coord. in units of alat)
               a(1) = (   1.000000   0.000460  -0.000013 )
               a(2) = (  -0.499600   0.866214   0.000170 )
               a(3) = (  -0.000017   0.000244   0.978663 )

     reciprocal axes: (cart. coord. in units 2 pi/alat)
               b(1) = (  0.999735  0.576610 -0.000126 )
               b(2) = ( -0.000531  1.154143 -0.000287 )
               b(3) = (  0.000013 -0.000193  1.021802 )

     PseudoPot. # 1 for Zn read from file:
     ./GBRV_PBEsol/zn_pbesol_v1.uspp.F.UPF
     MD5 check sum: 7d8615e52efe7c1e2b1899de8658bae2
     Pseudo is Ultrasoft, Zval = 20.0
     Generated by new atomic code, or converted to UPF format
     Using radial grid of  943 points,  6 beta functions with:
                l(1) =   0
                l(2) =   0
                l(3) =   1
                l(4) =   1
                l(5) =   2
                l(6) =   2
     Q(r) pseudized with  8 coefficients,  rinner =    1.100   1.100   1.100
                                                       1.100   1.100

     PseudoPot. # 2 for O  read from file:
     ./GBRV_PBEsol/o_pbesol_v1.2.uspp.F.UPF
     MD5 check sum: 501638753501ef6325af9037351f7734
     Pseudo is Ultrasoft + core correction, Zval =  6.0
     Generated by new atomic code, or converted to UPF format
     Using radial grid of  737 points,  5 beta functions with:
                l(1) =   0
                l(2) =   0
                l(3) =   1
                l(4) =   1
                l(5) =   2
     Q(r) pseudized with  8 coefficients,  rinner =    0.900   0.900   0.900
                                                       0.900   0.900

     PseudoPot. # 3 for Mg read from file:
     ./GBRV_PBEsol/mg_pbesol_v1.4.uspp.F.UPF
     MD5 check sum: 4059f37963cf5867752dbf5ab2400678
     Pseudo is Ultrasoft, Zval = 10.0
     Generated by new atomic code, or converted to UPF format
     Using radial grid of  821 points,  7 beta functions with:
                l(1) =   0
                l(2) =   0
                l(3) =   0
                l(4) =   1
                l(5) =   1
                l(6) =   2
                l(7) =   2
     Q(r) pseudized with  8 coefficients,  rinner =    1.200   1.200   1.200
                                                       1.200   1.200

     atomic species   valence    mass     pseudopotential
        Zn            20.00    65.38000     Zn( 1.00)
        O              6.00    15.99900     O ( 1.00)
        Mg            10.00    24.30500     Mg( 1.00)

     No symmetry found

                                    s                        frac. trans.

      isym =  1     identity

 cryst.   s( 1) = (     1          0          0      )
                  (     0          1          0      )
                  (     0          0          1      )

 cart.    s( 1) = (  1.0000000  0.0000000 -0.0000000 )
                  ( -0.0000000  1.0000000  0.0000000 )
                  ( -0.0000000 -0.0000000  1.0000000 )

   Cartesian axes

     site n.     atom                  positions (alat units)
         1           Zn  tau(   1) = (   0.1671298   0.0949475   0.2499508  )
         2           Zn  tau(   2) = (   0.1677931   0.0942631   0.7354144  )
         3           Zn  tau(   3) = (   0.0005145   0.3845901   0.2481740  )
         4           Zn  tau(   4) = (   0.0003646   0.3844025   0.7373617  )
         5           Zn  tau(   5) = (  -0.1642552   0.6732507   0.2479469  )
         6           Zn  tau(   6) = (  -0.1647631   0.6731805   0.7380749  )
         7           Zn  tau(   7) = (   0.4989231   0.0971435   0.2477016  )
         8           Zn  tau(   8) = (   0.4993003   0.0958208   0.7378192  )
         9           Zn  tau(   9) = (   0.3331657   0.3857477   0.2472763  )
        10           Mg  tau(  10) = (   0.3352641   0.3840291   0.7363865  )
        11           Mg  tau(  11) = (   0.1677096   0.6763133   0.2484802  )
        12           Zn  tau(  12) = (   0.1681979   0.6743528   0.7376203  )
        13           Zn  tau(  13) = (   0.8320794   0.0973468   0.2461082  )
        14           Zn  tau(  14) = (   0.8315930   0.0969568   0.7383419  )
        15           Mg  tau(  15) = (   0.6660859   0.3877605   0.2473861  )
        16           Zn  tau(  16) = (   0.6653916   0.3876603   0.7362999  )
        17           Zn  tau(  17) = (   0.5001173   0.6756507   0.2478449  )
        18           Mg  tau(  18) = (   0.5014292   0.6748327   0.7368996  )
        19           Mg  tau(  19) = (  -0.0009576   0.1915406   0.4924171  )
        20           Zn  tau(  20) = (  -0.0001501   0.1911428   0.0022934  )
        21           Zn  tau(  21) = (  -0.1645882   0.4799118   0.4918812  )
        22           Zn  tau(  22) = (  -0.1663608   0.4797510   0.0038288  )
        23           Zn  tau(  23) = (  -0.3306460   0.7692552   0.4935040  )
        24           Zn  tau(  24) = (  -0.3311249   0.7693243   0.0035951  )
        25           Zn  tau(  25) = (   0.3323982   0.1924894   0.4928823  )
        26           Zn  tau(  26) = (   0.3328607   0.1919990   0.0007000  )
        27           Mg  tau(  27) = (   0.1654887   0.4817600   0.4938375  )
        28           Mg  tau(  28) = (   0.1658543   0.4809331   0.0044005  )
        29           Zn  tau(  29) = (   0.0010964   0.7710704   0.4906707  )
        30           Zn  tau(  30) = (   0.0008926   0.7708837   0.0028160  )
        31           Zn  tau(  31) = (   0.6656831   0.1934893   0.4926267  )
        32           Mg  tau(  32) = (   0.6656186   0.1931406   0.0056036  )
        33           Zn  tau(  33) = (   0.4987809   0.4824288   0.4903552  )
        34           Zn  tau(  34) = (   0.4995223   0.4818007   0.0019924  )
        35           Zn  tau(  35) = (   0.3329008   0.7725293   0.4944149  )
        36           Zn  tau(  36) = (   0.3337870   0.7715762   0.0037723  )
        37           O   tau(  37) = (   0.1663408   0.0954923   0.0036473  )
        38           O   tau(  38) = (   0.1662037   0.0954578   0.4923969  )
        39           O   tau(  39) = (   0.0003605   0.3834993   0.0023297  )
        40           O   tau(  40) = (   0.0011031   0.3835484   0.4918607  )
        41           O   tau(  41) = (  -0.1647972   0.6724591   0.0038651  )
        42           O   tau(  42) = (  -0.1646159   0.6726549   0.4934838  )
        43           O   tau(  43) = (   0.4996021   0.0965379   0.0034570  )
        44           O   tau(  44) = (   0.4994645   0.0971835   0.4928619  )
        45           O   tau(  45) = (   0.3327381   0.3851252   0.0007368  )
        46           O   tau(  46) = (   0.3324135   0.3854010   0.4938173  )
        47           O   tau(  47) = (   0.1676295   0.6734344   0.0044365  )
        48           O   tau(  48) = (   0.1675506   0.6738362   0.4906501  )
        49           O   tau(  49) = (   0.8324603   0.0975000   0.0026780  )
        50           O   tau(  50) = (   0.8317042   0.0979733   0.4926066  )
        51           O   tau(  51) = (   0.6661105   0.3856617   0.0056396  )
        52           O   tau(  52) = (   0.6663048   0.3865357   0.4903347  )
        53           O   tau(  53) = (   0.5007026   0.6747444   0.0020290  )
        54           O   tau(  54) = (   0.5004276   0.6755295   0.4943945  )
        55           O   tau(  55) = (   0.0001515   0.1918058   0.2499711  )
        56           O   tau(  56) = (   0.0002734   0.1912320   0.7354349  )
        57           O   tau(  57) = (  -0.1659127   0.4809243   0.2481944  )
        58           O   tau(  58) = (  -0.1663086   0.4803309   0.7373817  )
        59           O   tau(  59) = (  -0.3318061   0.7687385   0.2479672  )
        60           O   tau(  60) = (  -0.3313939   0.7687584   0.7380951  )
        61           O   tau(  61) = (   0.3323451   0.1937672   0.2477222  )
        62           O   tau(  62) = (   0.3329954   0.1921504   0.7378395  )
        63           O   tau(  63) = (   0.1666035   0.4831603   0.2472967  )
        64           O   tau(  64) = (   0.1677841   0.4811194   0.7364071  )
        65           O   tau(  65) = (   0.0007969   0.7713838   0.2485003  )
        66           O   tau(  66) = (   0.0016432   0.7697779   0.7376405  )
        67           O   tau(  67) = (   0.6656234   0.1947562   0.2461286  )
        68           O   tau(  68) = (   0.6654644   0.1946307   0.7383624  )
        69           O   tau(  69) = (   0.4987808   0.4831580   0.2474062  )
        70           O   tau(  70) = (   0.4995122   0.4828704   0.7363203  )
        71           O   tau(  71) = (   0.3342937   0.7716805   0.2478652  )
        72           O   tau(  72) = (   0.3342852   0.7708019   0.7369198  )

   Crystallographic axes

     site n.     atom                  positions (cryst. coord.)
         1           Zn  tau(   1) = (  0.2218016  0.1094224  0.2553843  )
         2           Zn  tau(   2) = (  0.2220089  0.1084927  0.7514322  )
         3           Zn  tau(   3) = (  0.2222415  0.4438004  0.2535106  )
         4           Zn  tau(   4) = (  0.2219218  0.4434433  0.7533638  )
         5           Zn  tau(   5) = (  0.2239601  0.7770436  0.2532207  )
         6           Zn  tau(   6) = (  0.2233500  0.7768219  0.7540346  )
         7           Zn  tau(   7) = (  0.5547735  0.1117815  0.2530900  )
         8           Zn  tau(   8) = (  0.5543260  0.1101137  0.7538935  )
         9           Zn  tau(   9) = (  0.5554721  0.4449601  0.2525975  )
        10           Mg  tau(  10) = (  0.5565173  0.4428349  0.7523718  )
        11           Mg  tau(  11) = (  0.5576028  0.7804019  0.2537694  )
        12           Zn  tau(  12) = (  0.5568987  0.7779983  0.7535743  )
[...]
     atom   27 type  3   force =     0.00000000    0.00000000    0.00000000
     atom   28 type  3   force =     0.00000000    0.00000000    0.00000000
     atom   29 type  1   force =     0.00000000    0.00000000    0.00000000
     atom   30 type  1   force =     0.00000000    0.00000000    0.00000000
     atom   31 type  1   force =     0.00000000    0.00000000    0.00000000
     atom   32 type  3   force =     0.00000000    0.00000000    0.00000000
     atom   33 type  1   force =     0.00000000    0.00000000    0.00000000
     atom   34 type  1   force =     0.00000000    0.00000000    0.00000000
     atom   35 type  1   force =     0.00000000    0.00000000    0.00000000
     atom   36 type  1   force =     0.00000000    0.00000000    0.00000000
     atom   37 type  2   force =     0.00000000    0.00000000    0.00000000
     atom   38 type  2   force =     0.00000000    0.00000000    0.00000000
     atom   39 type  2   force =     0.00000000    0.00000000    0.00000000
     atom   40 type  2   force =     0.00000000    0.00000000    0.00000000
     atom   41 type  2   force =     0.00000000    0.00000000    0.00000000
     atom   42 type  2   force =     0.00000000    0.00000000    0.00000000
     atom   43 type  2   force =     0.00000000    0.00000000    0.00000000
     atom   44 type  2   force =     0.00000000    0.00000000    0.00000000
     atom   45 type  2   force =     0.00000000    0.00000000    0.00000000
     atom   46 type  2   force =     0.00000000    0.00000000    0.00000000
     atom   47 type  2   force =     0.00000000    0.00000000    0.00000000
     atom   48 type  2   force =     0.00000000    0.00000000    0.00000000
     atom   49 type  2   force =     0.00000000    0.00000000    0.00000000
     atom   50 type  2   force =     0.00000000    0.00000000    0.00000000
     atom   51 type  2   force =     0.00000000    0.00000000    0.00000000
     atom   52 type  2   force =     0.00000000    0.00000000    0.00000000
     atom   53 type  2   force =     0.00000000    0.00000000    0.00000000
     atom   54 type  2   force =     0.00000000    0.00000000    0.00000000
     atom   55 type  2   force =     0.00000000    0.00000000    0.00000000
     atom   56 type  2   force =     0.00000000    0.00000000    0.00000000
     atom   57 type  2   force =     0.00000000    0.00000000    0.00000000
     atom   58 type  2   force =     0.00000000    0.00000000    0.00000000
     atom   59 type  2   force =     0.00000000    0.00000000    0.00000000
     atom   60 type  2   force =     0.00000000    0.00000000    0.00000000
     atom   61 type  2   force =     0.00000000    0.00000000    0.00000000
     atom   62 type  2   force =     0.00000000    0.00000000    0.00000000
     atom   63 type  2   force =     0.00000000    0.00000000    0.00000000
     atom   64 type  2   force =     0.00000000    0.00000000    0.00000000
     atom   65 type  2   force =     0.00000000    0.00000000    0.00000000
     atom   66 type  2   force =     0.00000000    0.00000000    0.00000000
     atom   67 type  2   force =     0.00000000    0.00000000    0.00000000
     atom   68 type  2   force =     0.00000000    0.00000000    0.00000000
     atom   69 type  2   force =     0.00000000    0.00000000    0.00000000
     atom   70 type  2   force =     0.00000000    0.00000000    0.00000000
     atom   71 type  2   force =     0.00000000    0.00000000    0.00000000
     atom   72 type  2   force =     0.00000000    0.00000000    0.00000000
     The SCF correction term to forces
     atom    1 type  1   force =     0.00004310   -0.00003516    0.00000000
     atom    2 type  1   force =     0.00001796   -0.00002032    0.00000000
     atom    3 type  1   force =    -0.00002729    0.00000604    0.00000000
     atom    4 type  1   force =     0.00000942   -0.00000811    0.00000000
     atom    5 type  1   force =    -0.00006387    0.00000216    0.00000000
     atom    6 type  1   force =    -0.00007946   -0.00000156    0.00000000
     atom    7 type  1   force =    -0.00002941    0.00004422    0.00000000
     atom    8 type  1   force =    -0.00001398    0.00007260    0.00000000
     atom    9 type  1   force =     0.00004989   -0.00002978    0.00000000
     atom   10 type  3   force =     0.00001240   -0.00000416    0.00000000
     atom   11 type  3   force =     0.00000293   -0.00000047    0.00000000
     atom   12 type  1   force =     0.00005687   -0.00002546    0.00000000
     atom   13 type  1   force =    -0.00001325    0.00001457    0.00000000
     atom   14 type  1   force =    -0.00000406   -0.00000214    0.00000000
     atom   15 type  3   force =    -0.00001027    0.00000995    0.00000000
     atom   16 type  1   force =    -0.00003382    0.00000239    0.00000000
     atom   17 type  1   force =     0.00005732   -0.00002191    0.00000000
     atom   18 type  3   force =     0.00001155   -0.00000456    0.00000000
     atom   19 type  3   force =    -0.00001713    0.00000675    0.00000000
     atom   20 type  1   force =    -0.00007369    0.00003541    0.00000000
     atom   21 type  1   force =    -0.00003552    0.00000957    0.00000000
     atom   22 type  1   force =    -0.00002375   -0.00000194    0.00000000
     atom   23 type  1   force =     0.00003695   -0.00004114    0.00000000
     atom   24 type  1   force =     0.00002582   -0.00007541    0.00000000
     atom   25 type  1   force =     0.00006025   -0.00000936    0.00000000
     atom   26 type  1   force =     0.00009481    0.00001971    0.00000000
     atom   27 type  3   force =    -0.00000251    0.00000558    0.00000000
     atom   28 type  3   force =    -0.00000180    0.00000810    0.00000000
     atom   29 type  1   force =    -0.00002025    0.00001901    0.00000000
     atom   30 type  1   force =     0.00000185    0.00001933    0.00000000
     atom   31 type  1   force =    -0.00002629    0.00001894    0.00000000
     atom   32 type  3   force =    -0.00001093    0.00000403    0.00000000
     atom   33 type  1   force =     0.00003983   -0.00002854    0.00000000
     atom   34 type  1   force =     0.00002599   -0.00002801    0.00000000
     atom   35 type  1   force =    -0.00001674    0.00000693    0.00000000
     atom   36 type  1   force =    -0.00002640    0.00000714    0.00000000
     atom   37 type  2   force =     0.00000639   -0.00000523    0.00000000
     atom   38 type  2   force =     0.00000920   -0.00000839    0.00000000
     atom   39 type  2   force =    -0.00000757    0.00000304    0.00000000
     atom   40 type  2   force =    -0.00000700    0.00000277    0.00000000
     atom   41 type  2   force =    -0.00000446   -0.00000090    0.00000000
     atom   42 type  2   force =    -0.00000768    0.00000365    0.00000000
     atom   43 type  2   force =     0.00000171    0.00000426    0.00000000
     atom   44 type  2   force =    -0.00000139    0.00000448    0.00000000
     atom   45 type  2   force =     0.00001136   -0.00000188    0.00000000
     atom   46 type  2   force =     0.00001058   -0.00000621    0.00000000
     atom   47 type  2   force =    -0.00000121    0.00000459    0.00000000
     atom   48 type  2   force =    -0.00000351    0.00000502    0.00000000
     atom   49 type  2   force =    -0.00000831    0.00000278    0.00000000
     atom   50 type  2   force =    -0.00000842    0.00000387    0.00000000
     atom   51 type  2   force =    -0.00000369    0.00000058    0.00000000
     atom   52 type  2   force =    -0.00000332   -0.00000093    0.00000000
     atom   53 type  2   force =     0.00000532   -0.00000639    0.00000000
     atom   54 type  2   force =     0.00001087   -0.00000310    0.00000000
     atom   55 type  2   force =    -0.00000491   -0.00000009    0.00000000
     atom   56 type  2   force =    -0.00000454   -0.00000190    0.00000000
     atom   57 type  2   force =    -0.00001055    0.00000773    0.00000000
     atom   58 type  2   force =    -0.00001219    0.00000112    0.00000000
     atom   59 type  2   force =     0.00000998   -0.00001080    0.00000000
     atom   60 type  2   force =     0.00000348   -0.00000713    0.00000000
     atom   61 type  2   force =     0.00001533   -0.00000499    0.00000000
     atom   62 type  2   force =     0.00001133    0.00000041    0.00000000
     atom   63 type  2   force =     0.00000105    0.00000104    0.00000000
     atom   64 type  2   force =     0.00000559    0.00000101    0.00000000
     atom   65 type  2   force =    -0.00001083    0.00000741    0.00000000
     atom   66 type  2   force =    -0.00000338    0.00000652    0.00000000
     atom   67 type  2   force =    -0.00001046    0.00000304    0.00000000
     atom   68 type  2   force =    -0.00000684    0.00000505    0.00000000
     atom   69 type  2   force =     0.00000895   -0.00000394    0.00000000
     atom   70 type  2   force =     0.00000653   -0.00000592    0.00000000
     atom   71 type  2   force =     0.00000085    0.00000075    0.00000000
     atom   72 type  2   force =     0.00000010    0.00000029    0.00000000

     Total force =     0.000171     Total SCF correction =     0.000280
     SCF correction compared to forces is large: reduce conv_thr to get better values

     Computing stress (Cartesian axis) and pressure

          total   stress  (Ry/bohr**3)                   (kbar)     P=  138.81
   0.00141035   0.00000071   0.00000016        207.47      0.11      0.02
   0.00000071   0.00141259   0.00000012          0.11    207.80      0.02
   0.00000016   0.00000012   0.00000799          0.02      0.02      1.18

     kinetic stress (kbar)  33321.32      1.27      0.12
                                1.27  33319.85      0.05
                                0.12      0.05  33778.02

     local   stress (kbar) -10320.99  -1038.12   -683.69
                            -1038.12 -11591.34      5.97
                             -683.69      5.97   2451.37

     nonloc. stress (kbar)    -27.20     -0.28      0.05
                               -0.28    -25.69      0.02
                                0.05      0.02   -325.57

     hartree stress (kbar)  60675.38    508.92    335.82
                              508.92  61271.14     -6.86
                              335.82     -6.86  57498.80

     exc-cor stress (kbar) -13656.65      0.02     -0.00
                                0.02 -13656.62      0.00
                               -0.00      0.00 -13670.23

     corecor stress (kbar)   -271.87     -0.00     -0.00
                               -0.00   -271.87      0.00
                               -0.00      0.00   -272.45

     ewald   stress (kbar) -69512.52    528.31    347.74
                              528.31 -68837.67      0.84
                              347.74      0.84 -79458.77

     hubbard stress (kbar)      0.00      0.00      0.00
                                0.00      0.00      0.00
                                0.00      0.00      0.00

     london  stress (kbar)      0.00      0.00      0.00
                                0.00      0.00      0.00
                                0.00      0.00      0.00

     DFT-D3  stress (kbar)      0.00      0.00      0.00
                                0.00      0.00      0.00
                                0.00      0.00      0.00

     XDM     stress (kbar)      0.00      0.00      0.00
                                0.00      0.00      0.00
                                0.00      0.00      0.00

     dft-nl  stress (kbar)      0.00      0.00      0.00
                                0.00      0.00      0.00
                                0.00      0.00      0.00

     TS-vdW  stress (kbar)      0.00      0.00      0.00
                                0.00      0.00      0.00
                                0.00      0.00      0.00

     Message from routine bfgs:
     history already reset at previous step: stopping

     bfgs converged in   4 scf cycles and   1 bfgs steps
     (criteria: energy <  1.0E-07 Ry, force <  1.0E-06 Ry/Bohr)

     End of BFGS Geometry Optimization

     Final energy   =  -15079.2181065381 Ry
Begin final coordinates

ATOMIC_POSITIONS (crystal)
Zn       0.221801232   0.109423858   0.255384254    1   1   0
Zn       0.222008157   0.108494765   0.751432193    1   1   0
Zn       0.222241978   0.443799990   0.253510579    1   1   0
Zn       0.221922488   0.443442722   0.753363760    1   1   0
Zn       0.223960176   0.777042796   0.253220703    1   1   0
Zn       0.223350549   0.776820550   0.754034608    1   1   0
Zn       0.554775284   0.111782635   0.253089980    1   1   0
Zn       0.554327828   0.110113755   0.753893515    1   1   0
Zn       0.555472070   0.444960904   0.252597508    1   1   0
Mg       0.556516998   0.442835686   0.752371811    1   1   0
Mg       0.557602697   0.780400956   0.253769413    1   1   0
Zn       0.556898707   0.777996871   0.753574260    1   1   0
Zn       0.887959295   0.111840593   0.251466170    1   1   0
Zn       0.887186331   0.111248944   0.754431793    1   1   0
Mg       0.889464368   0.447106056   0.252713717    1   1   0
Zn       0.888651354   0.446849718   0.752287006    1   1   0
Zn       0.889539458   0.779460425   0.253124844    1   1   0
Mg       0.890317996   0.778375463   0.752842225    1   1   0
Mg       0.109424972   0.220924130   0.503115973    1   1   0
Zn       0.110065692   0.220605661   0.002306517    1   1   0
Zn       0.112115154   0.553832839   0.502510618    1   1   0
Zn       0.110312423   0.553788512   0.003817502    1   1   0
Zn       0.112937693   0.887863546   0.504110821    1   1   0
Zn       0.112561637   0.888085369   0.003520710    1   1   0
Zn       0.443239015   0.221844155   0.503595616    1   1   0
Zn       0.443479997   0.221419038   0.000682706    1   1   0
Mg       0.443170532   0.555790000   0.504513539    1   1   0
Mg       0.443121088   0.554976384   0.004405907    1   1   0
Zn       0.445641184   0.889782911   0.501219740    1   1   0
Zn       0.445391319   0.889707262   0.002728688    1   1   0
Zn       0.777012719   0.222820290   0.503338611    1   1   0
Mg       0.776808175   0.222556913   0.005697340    1   1   0
Zn       0.776759200   0.556387136   0.500959687    1   1   0
Zn       0.777199353   0.555801820   0.001949588    1   1   0
Zn       0.778198230   0.891288689   0.505049734    1   1   0
Zn       0.778595685   0.890329088   0.003710223    1   1   0
O        0.221357907   0.110122460   0.003710623    1   1   0
O        0.221139330   0.109942175   0.503116056    1   1   0
O        0.221489726   0.442612295   0.002306585    1   1   0
O        0.222198399   0.442527722   0.502510491    1   1   0
O        0.222992667   0.776200391   0.003817541    1   1   0
O        0.223225035   0.776285569   0.504110937    1   1   0
O        0.555133731   0.111152356   0.003520396    1   1   0
O        0.555306891   0.111756994   0.503595363    1   1   0
O        0.554716827   0.444312862   0.000682968    1   1   0
O        0.554489122   0.444489654   0.504513749    1   1   0
O        0.555893497   0.777149302   0.004405594    1   1   0
O        0.555984887   0.777473257   0.501219654    1   1   0
O        0.888458629   0.112086001   0.002728675    1   1   0
O        0.887913850   0.112491962   0.503338752    1   1   0
O        0.888309432   0.444753330   0.005697040    1   1   0
O        0.888946526   0.445622885   0.500959448    1   1   0
O        0.889633810   0.778485053   0.001949759    1   1   0
O        0.889749461   0.779249837   0.505049844    1   1   0
O        0.110717009   0.221299491   0.255384093    1   1   0
O        0.110446674   0.220497669   0.751432218    1   1   0
O        0.111405634   0.555072163   0.253510657    1   1   0
O        0.110606155   0.554246887   0.753363484    1   1   0
O        0.111512873   0.887339172   0.253220789    1   1   0
O        0.111874601   0.887221260   0.754034639    1   1   0
O        0.443953942   0.223387375   0.253090169    1   1   0
O        0.443610156   0.221380426   0.753893459    1   1   0
O        0.445123087   0.557476395   0.252597361    1   1   0
O        0.445064998   0.554979881   0.752371883    1   1   0
O        0.445553181   0.890215434   0.253769394    1   1   0
O        0.445411397   0.888220858   0.753574354    1   1   0
O        0.777714516   0.224352642   0.251466017    1   1   0
O        0.777421041   0.224066149   0.754431683    1   1   0
O        0.777211017   0.557297553   0.252713681    1   1   0
O        0.777714783   0.556824757   0.752287306    1   1   0
O        0.779132501   0.890381024   0.253124838    1   1   0
O        0.778555676   0.889226336   0.752842110    1   1   0
End final coordinates

     Writing output data file ZnO.save/

     General routines

     Parallel routines

   This run was terminated on:  19:47:22   8Nov2021

   JOB DONE.