     Program PWSCF v.6.4.1 starts on 15Jul2022 at  1:26:30

     K-points division:     npool     =       8
     R & G space division:  proc/nbgrp/npool/nimage =      16
     Waiting for input...
     Reading input from standard input
Warning: card &IONS ignored
Warning: card   UPSCALE           = 100.D0, ignored
Warning: card / ignored
Warning: card &CELL ignored
Warning: card   CELL_DYNAMICS     = 'BFGS' ignored
Warning: card   PRESS_CONV_THR    = 0.5D0 ignored
Warning: card   CELL_DOFREE = 'ALL' ignored
Warning: card / ignored

     Current dimensions of program PWSCF are:
     Max number of different atomic species (ntypx) = 10
     Max number of k-points (npk) =  40000
     Max angular momentum in pseudopotentials (lmaxx) =  3

     bravais-lattice index     =            0
     lattice parameter (alat)  =      18.4447  a.u.
     unit-cell volume          =    5731.4644 (a.u.)^3
     number of atoms/cell      =           72
     number of atomic types    =            3
     number of electrons       =       776.00
     number of Kohn-Sham states=          466
     kinetic-energy cutoff     =      60.0000  Ry
     charge density cutoff     =     500.0000  Ry
     convergence threshold     =      1.0E-08
     mixing beta               =       0.5000
     number of iterations used =            8  plain     mixing
     Exchange-correlation      = SLA  PW   PSX  PSC ( 1  4 10  8 0 0)

     celldm(1)=  18.444651  celldm(2)=   0.000000  celldm(3)=   0.000000
     celldm(4)=   0.000000  celldm(5)=   0.000000  celldm(6)=   0.000000

     crystal axes: (cart. coord. in units of alat)
               a(1) = (   1.000000  -0.000668   0.000654 )
               a(2) = (  -0.500577   0.867025  -0.000259 )
               a(3) = (   0.000697   0.000083   1.053879 )

     reciprocal axes: (cart. coord. in units 2 pi/alat)
               b(1) = (  1.000387  0.577573 -0.000707 )
               b(2) = (  0.000771  1.153815 -0.000091 )
               b(3) = ( -0.000620 -0.000075  0.948876 )

     PseudoPot. # 1 for Zn read from file:
     ./GBRV_PBEsol/zn_pbesol_v1.uspp.F.UPF
     MD5 check sum: 7d8615e52efe7c1e2b1899de8658bae2
     Pseudo is Ultrasoft, Zval = 20.0
     Generated by new atomic code, or converted to UPF format
     Using radial grid of  943 points,  6 beta functions with:
                l(1) =   0
                l(2) =   0
                l(3) =   1
                l(4) =   1
                l(5) =   2
                l(6) =   2
     Q(r) pseudized with  8 coefficients,  rinner =    1.100   1.100   1.100
                                                       1.100   1.100

     PseudoPot. # 2 for O  read from file:
     ./GBRV_PBEsol/o_pbesol_v1.2.uspp.F.UPF
     MD5 check sum: 501638753501ef6325af9037351f7734
     Pseudo is Ultrasoft + core correction, Zval =  6.0
     Generated by new atomic code, or converted to UPF format
     Using radial grid of  737 points,  5 beta functions with:
                l(1) =   0
                l(2) =   0
                l(3) =   1
                l(4) =   1
                l(5) =   2
     Q(r) pseudized with  8 coefficients,  rinner =    0.900   0.900   0.900
                                                       0.900   0.900

     PseudoPot. # 3 for Mg read from file:
     ./GBRV_PBEsol/mg_pbesol_v1.4.uspp.F.UPF
     MD5 check sum: 4059f37963cf5867752dbf5ab2400678
     Pseudo is Ultrasoft, Zval = 10.0
     Generated by new atomic code, or converted to UPF format
     Using radial grid of  821 points,  7 beta functions with:
                l(1) =   0
                l(2) =   0
                l(3) =   0
                l(4) =   1
                l(5) =   1
                l(6) =   2
                l(7) =   2
     Q(r) pseudized with  8 coefficients,  rinner =    1.200   1.200   1.200
                                                       1.200   1.200

     atomic species   valence    mass     pseudopotential
        Zn            20.00    65.38000     Zn( 1.00)
        O              6.00    15.99900     O ( 1.00)
        Mg            10.00    24.30500     Mg( 1.00)

     No symmetry found

                                    s                        frac. trans.

      isym =  1     identity

 cryst.   s( 1) = (     1          0          0      )
                  (     0          1          0      )
                  (     0          0          1      )

 cart.    s( 1) = (  1.0000000  0.0000000 -0.0000000 )
                  (  0.0000000  1.0000000 -0.0000000 )
                  (  0.0000000  0.0000000  1.0000000 )

   Cartesian axes

     site n.     atom                  positions (alat units)
         1           Zn  tau(   1) = (   0.1646614   0.0954262   0.2071038  )
         2           Zn  tau(   2) = (   0.3320518   0.3843906   0.2043266  )
         3           Zn  tau(   3) = (   0.6691702   0.3848469   0.2044931  )
         4           Zn  tau(   4) = (   0.1678726   0.0960985   0.7340249  )
         5           Zn  tau(   5) = (   0.5011934   0.0961634   0.7311122  )
         6           Zn  tau(   6) = (   0.8318748   0.0963217   0.7295974  )
         7           Zn  tau(   7) = (  -0.0001866   0.3867957   0.7307143  )
         8           Zn  tau(   8) = (   0.6661818   0.3851806   0.7320792  )
         9           Zn  tau(   9) = (   0.1653529   0.6739835   0.7315785  )
        10           Zn  tau(  10) = (   0.5001898   0.6716942   0.7293596  )
        11           Zn  tau(  11) = (   0.3319979   0.1938768   0.4696658  )
        12           Zn  tau(  12) = (   0.6671723   0.1931983   0.4672574  )
        13           Zn  tau(  13) = (   0.1670983   0.4804000   0.4681746  )
        14           Zn  tau(  14) = (   0.4994225   0.4798135   0.4666342  )
        15           Zn  tau(  15) = (  -0.0023845   0.7688990   0.4668756  )
        16           Zn  tau(  16) = (  -0.0007024   0.1924318   0.9951785  )
        17           Zn  tau(  17) = (   0.3339533   0.1902178   0.9967857  )
        18           Zn  tau(  18) = (   0.1654577   0.4819015   0.9963968  )
        19           Zn  tau(  19) = (  -0.3346611   0.7695923   0.9948994  )
        20           Zn  tau(  20) = (   0.0007608   0.7716497   0.9969886  )
        21           Mg  tau(  21) = (   0.4982065   0.0971134   0.2086268  )
        22           Mg  tau(  22) = (   0.8355445   0.0954276   0.2071731  )
        23           Mg  tau(  23) = (   0.0020210   0.3827191   0.2061733  )
        24           Mg  tau(  24) = (  -0.1676134   0.6757312   0.2038853  )
        25           Mg  tau(  25) = (   0.1668992   0.6743223   0.2068467  )
        26           Mg  tau(  26) = (   0.4998578   0.6754729   0.2073437  )
        27           Mg  tau(  27) = (   0.3337417   0.3851715   0.7339829  )
        28           Mg  tau(  28) = (  -0.1651365   0.6751550   0.7325141  )
        29           Mg  tau(  29) = (   0.0022741   0.1932535   0.4719013  )
        30           Mg  tau(  30) = (  -0.1668264   0.4822744   0.4679523  )
        31           Mg  tau(  31) = (  -0.3315848   0.7718304   0.4702924  )
        32           Mg  tau(  32) = (   0.3313252   0.7692822   0.4701229  )
        33           Mg  tau(  33) = (   0.6674914   0.1920437   0.9970915  )
        34           Mg  tau(  34) = (  -0.1649020   0.4804735   0.9945204  )
        35           Mg  tau(  35) = (   0.5022657   0.4821045   0.9982849  )
        36           Mg  tau(  36) = (   0.3349466   0.7708407   0.9933177  )
        37           O   tau(  37) = (   0.1654182   0.0952786   0.0029813  )
        38           O   tau(  38) = (   0.5004415   0.0965172   0.0060892  )
        39           O   tau(  39) = (   0.8325689   0.0947303   0.0043322  )
        40           O   tau(  40) = (  -0.0005484   0.3843948   0.0041109  )
        41           O   tau(  41) = (   0.3332940   0.3847991   0.0002274  )
        42           O   tau(  42) = (   0.6677683   0.3845910   0.0010214  )
        43           O   tau(  43) = (  -0.1673292   0.6731700   0.0009550  )
        44           O   tau(  44) = (   0.1676715   0.6748639   0.0038457  )
        45           O   tau(  45) = (   0.4983375   0.6738067   0.0049454  )
        46           O   tau(  46) = (   0.1671291   0.0960507   0.5310727  )
        47           O   tau(  47) = (   0.5001034   0.0959210   0.5273289  )
        48           O   tau(  48) = (   0.8340389   0.0956676   0.5268487  )
        49           O   tau(  49) = (  -0.0007846   0.3856694   0.5273793  )
        50           O   tau(  50) = (   0.3335188   0.3856294   0.5319413  )
        51           O   tau(  51) = (   0.6665755   0.3850883   0.5289604  )
        52           O   tau(  52) = (  -0.1677371   0.6733069   0.5304136  )
        53           O   tau(  53) = (   0.1649106   0.6734191   0.5281488  )
        54           O   tau(  54) = (   0.5000457   0.6738765   0.5258776  )
        55           O   tau(  55) = (  -0.0001870   0.1925247   0.2697368  )
        56           O   tau(  56) = (   0.3315780   0.1929106   0.2667534  )
        57           O   tau(  57) = (   0.6673487   0.1917437   0.2636308  )
        58           O   tau(  58) = (  -0.1641810   0.4828287   0.2650062  )
        59           O   tau(  59) = (   0.1667345   0.4818362   0.2652611  )
        60           O   tau(  60) = (   0.5004195   0.4809589   0.2629689  )
        61           O   tau(  61) = (  -0.3331219   0.7699955   0.2681624  )
        62           O   tau(  62) = (  -0.0006467   0.7706530   0.2639728  )
        63           O   tau(  63) = (   0.3329108   0.7703814   0.2673480  )
        64           O   tau(  64) = (  -0.0004328   0.1931460   0.7911397  )
        65           O   tau(  65) = (   0.3346044   0.1924203   0.7934518  )
        66           O   tau(  66) = (   0.6669265   0.1925607   0.7944622  )
        67           O   tau(  67) = (  -0.1665661   0.4826869   0.7921402  )
        68           O   tau(  68) = (   0.1667127   0.4816572   0.7929489  )
        69           O   tau(  69) = (   0.4998405   0.4811564   0.7956067  )
        70           O   tau(  70) = (  -0.3335330   0.7696673   0.7909983  )
        71           O   tau(  71) = (   0.0005090   0.7715224   0.7935071  )
        72           O   tau(  72) = (   0.3336434   0.7701229   0.7905103  )

   Crystallographic axes

     site n.     atom                  positions (cryst. coord.)
         1           Zn  tau(   1) = (  0.2196943  0.1102123  0.1964066  )
         2           Zn  tau(   2) = (  0.5540496  0.4437530  0.1936459  )
         3           Zn  tau(   3) = (  0.8915619  0.4445394  0.1935947  )
         4           Zn  tau(   4) = (  0.2229226  0.1109426  0.6963873  )
         5           Zn  tau(   5) = (  0.5564120  0.1112748  0.6934168  )
         6           Zn  tau(   6) = (  0.8873137  0.1117125  0.6917743  )
         7           Zn  tau(   7) = (  0.2226998  0.4462239  0.6933285  )
         8           Zn  tau(   8) = (  0.8883921  0.4448742  0.6942104  )
         9           Zn  tau(   9) = (  0.5541747  0.7777130  0.6940243  )
        10           Zn  tau(  10) = (  0.8878204  0.7753300  0.6917113  )
        11           Zn  tau(  11) = (  0.4437724  0.2239113  0.4454342  )
[...]
     1.5929   1.6106   1.6361   1.6476   1.6715   1.6938   1.7222   1.7297
     1.7949   1.8103   1.8314   1.8454   1.8508   1.8672   1.8818   1.8962
     1.9130   1.9336   1.9483   1.9777   1.9934   2.0147   2.0212   2.0306
     2.0385   2.0541   2.0571   2.0728   2.0810   2.1120   2.1154   2.1227
     2.1355   2.1499   2.1677   2.1731   2.1767   2.2005   2.2140   2.2209
     2.2317   2.2388   2.2618   2.2858   2.3033   2.3282   2.3549   2.3893
     2.4028   2.4239   2.4462   2.4611   2.4730   2.4848   2.4955   2.5219
     2.5362   2.5578   2.5781   2.5933   2.6057   2.6117   2.6260   2.6406
     2.6555   2.6812   2.6873   2.7038   2.7137   2.7365   2.7495   2.7613
     2.7909   2.8130   2.8297   2.8346   2.8450   2.8638   2.8829   2.9004
     2.9105   2.9230   2.9376   2.9478   2.9647   2.9773   2.9940   3.0150
     3.0214   3.0286   3.0414   3.0547   3.0678   3.0750   3.0994   3.1156
     3.1207   3.2249   3.3170   3.3633   3.4109   3.4255   3.4463   3.5042
     3.5317   3.5433   3.5781   3.5997   3.6513   3.6704   3.7170   3.7438
     3.7832   3.8191   3.8491   3.8947   3.9261   3.9697   4.0602   4.0926
     4.1147   4.1243   4.1575   4.2030   4.2168   4.2726   4.2918   4.3387
     4.3658   4.3876   4.4195   4.5022   4.5450   4.5539   4.5767   4.6654
     4.7412   4.7892   4.8605   4.8887   4.9290   5.0534   5.1041   5.2203
     5.2496   5.2687   5.2756   5.3087   5.3440   5.3525   5.3832   5.4345
     5.4494   5.4651   5.4888   5.5303   5.5459   5.6253   5.6708   5.6934
     5.7112   5.7527   5.7672   5.7869   5.7922   5.8079   5.8380   5.8702
     5.9001   5.9195   5.9351   5.9521   5.9756   6.0227   6.0442   6.0462
     6.0622   6.1193   6.1309   6.1660   6.2014   6.2224   6.2411   6.2618
     6.2841   6.3249   6.3601   6.3899   6.4064   6.4266   6.4596   6.4716
     6.4866   6.4940   6.5128   6.5734   6.6262   6.7113   6.7269   6.7468
     6.8001   7.0234   7.0401   7.0597   8.8241  11.2835  11.3222  11.9048
    11.9563  12.0251  12.1054  12.2033  12.3650  12.7893  12.8540  12.8809
    12.9075  12.9576  12.9835  13.0369  13.0556  13.1226  13.2026  13.2932
    13.3415  13.6536  14.7573  14.7645  14.8937  14.9646  15.0035  15.0202
    15.0393  15.0581  15.0850  15.1330  15.1483  15.1892  15.2148  15.2280
    15.2468  15.2939  15.3391  15.3517  15.4025  15.4656  15.5454  15.6420
    15.6864  15.7665  15.8054  15.8510  15.8812  15.9544  16.0295  16.1185
    16.1322  16.1764  16.2208  16.2571  16.2638  16.4068  16.4688  16.6987
    16.7311  16.9561  17.1598  17.1945  17.2540  17.4099  17.4527  17.5027
    17.5432  17.5657  17.7795  17.8262  17.9531  18.2059  18.2331  18.2809
    18.3212  18.4758

     occupation numbers
     1.0000   1.0000   1.0000   1.0000   1.0000   1.0000   1.0000   1.0000
     1.0000   1.0000   1.0000   1.0000   1.0000   1.0000   1.0000   1.0000
     1.0000   1.0000   1.0000   1.0000   1.0000   1.0000   1.0000   1.0000
     1.0000   1.0000   1.0000   1.0000   1.0000   1.0000   1.0000   1.0000
     1.0000   1.0000   1.0000   1.0000   1.0000   1.0000   1.0000   1.0000
     1.0000   1.0000   1.0000   1.0000   1.0000   1.0000   1.0000   1.0000
     1.0000   1.0000   1.0000   1.0000   1.0000   1.0000   1.0000   1.0000
     1.0000   1.0000   1.0000   1.0000   1.0000   1.0000   1.0000   1.0000
     1.0000   1.0000   1.0000   1.0000   1.0000   1.0000   1.0000   1.0000
     1.0000   1.0000   1.0000   1.0000   1.0000   1.0000   1.0000   1.0000
     1.0000   1.0000   1.0000   1.0000   1.0000   1.0000   1.0000   1.0000
     1.0000   1.0000   1.0000   1.0000   1.0000   1.0000   1.0000   1.0000
     1.0000   1.0000   1.0000   1.0000   1.0000   1.0000   1.0000   1.0000
     1.0000   1.0000   1.0000   1.0000   1.0000   1.0000   1.0000   1.0000
     1.0000   1.0000   1.0000   1.0000   1.0000   1.0000   1.0000   1.0000
     1.0000   1.0000   1.0000   1.0000   1.0000   1.0000   1.0000   1.0000
     1.0000   1.0000   1.0000   1.0000   1.0000   1.0000   1.0000   1.0000
     1.0000   1.0000   1.0000   1.0000   1.0000   1.0000   1.0000   1.0000
     1.0000   1.0000   1.0000   1.0000   1.0000   1.0000   1.0000   1.0000
     1.0000   1.0000   1.0000   1.0000   1.0000   1.0000   1.0000   1.0000
     1.0000   1.0000   1.0000   1.0000   1.0000   1.0000   1.0000   1.0000
     1.0000   1.0000   1.0000   1.0000   1.0000   1.0000   1.0000   1.0000
     1.0000   1.0000   1.0000   1.0000   1.0000   1.0000   1.0000   1.0000
     1.0000   1.0000   1.0000   1.0000   1.0000   1.0000   1.0000   1.0000
     1.0000   1.0000   1.0000   1.0000   1.0000   1.0000   1.0000   1.0000
     1.0000   1.0000   1.0000   1.0000   1.0000   1.0000   1.0000   1.0000
     1.0000   1.0000   1.0000   1.0000   1.0000   1.0000   1.0000   1.0000
     1.0000   1.0000   1.0000   1.0000   1.0000   1.0000   1.0000   1.0000
     1.0000   1.0000   1.0000   1.0000   1.0000   1.0000   1.0000   1.0000
     1.0000   1.0000   1.0000   1.0000   1.0000   1.0000   1.0000   1.0000
     1.0000   1.0000   1.0000   1.0000   1.0000   1.0000   1.0000   1.0000
     1.0000   1.0000   1.0000   1.0000   1.0000   1.0000   1.0000   1.0000
     1.0000   1.0000   1.0000   1.0000   1.0000   1.0000   1.0000   1.0000
     1.0000   1.0000   1.0000   1.0000   1.0000   1.0000   1.0000   1.0000
     1.0000   1.0000   1.0000   1.0000   1.0000   1.0000   1.0000   1.0000
     1.0000   1.0000   1.0000   1.0000   1.0000   1.0000   1.0000   1.0000
     1.0000   1.0000   1.0000   1.0000   1.0000   1.0000   1.0000   1.0000
     1.0000   1.0000   1.0000   1.0000   1.0000   1.0000   1.0000   1.0000
     1.0000   1.0000   1.0000   1.0000   1.0000   1.0000   1.0000   1.0000
     1.0000   1.0000   1.0000   1.0000   1.0000   1.0000   1.0000   1.0000
     1.0000   1.0000   1.0000   1.0000   1.0000   1.0000   1.0000   1.0000
     1.0000   1.0000   1.0000   1.0000   1.0000   1.0000   1.0000   1.0000
     1.0000   1.0000   1.0000   1.0000   1.0000   1.0000   1.0000   1.0000
     1.0000   1.0000   1.0000   1.0000   1.0000   1.0000   1.0000   1.0000
     1.0000   1.0000   1.0000   1.0000   1.0000   1.0000   1.0000   1.0000
     1.0000   1.0000   1.0000   1.0000   1.0000   1.0000   1.0000   1.0000
     1.0000   1.0000   1.0000   1.0000   1.0000   1.0000   1.0000   1.0000
     1.0000   1.0000   1.0000   1.0000   1.0000   1.0000   1.0000   1.0000
     1.0000   1.0000   1.0000   1.0000   0.0000   0.0000   0.0000   0.0000
     0.0000   0.0000   0.0000   0.0000   0.0000   0.0000   0.0000   0.0000
     0.0000   0.0000   0.0000   0.0000   0.0000   0.0000   0.0000   0.0000
     0.0000   0.0000   0.0000   0.0000   0.0000   0.0000   0.0000   0.0000
     0.0000   0.0000   0.0000   0.0000   0.0000   0.0000   0.0000   0.0000
     0.0000   0.0000   0.0000   0.0000   0.0000   0.0000   0.0000   0.0000
     0.0000   0.0000   0.0000   0.0000   0.0000   0.0000   0.0000   0.0000
     0.0000   0.0000   0.0000   0.0000   0.0000   0.0000   0.0000   0.0000
     0.0000   0.0000   0.0000   0.0000   0.0000   0.0000   0.0000   0.0000
     0.0000   0.0000   0.0000   0.0000   0.0000   0.0000   0.0000   0.0000
     0.0000   0.0000

          k =-0.0002-0.0000 0.2372 ( 45027 PWs)   bands (ev):

[...]

          k = 0.2501-0.1440-0.2374 ( 44978 PWs)   bands (ev):

[...]

          k =-0.5003-0.8657-0.4740 ( 44972 PWs)   bands (ev):

  -115.6823-115.6766-115.6741-115.6721-115.6715-115.6688-115.6681-115.6676
  -115.6636-115.6636-115.6623-115.6612-115.6600-115.6594-115.6554-115.6534
  -115.6479-115.6454-115.6450-115.6285 -70.0443 -70.0396 -70.0384 -70.0351
   -70.0341 -70.0329 -70.0326 -70.0318 -70.0307 -70.0304 -70.0300 -70.0295
   -70.0282 -70.0275 -70.0274 -70.0266 -70.0258 -70.0253 -70.0251 -70.0250
   -70.0245 -70.0244 -70.0238 -70.0233 -70.0227 -70.0220 -70.0216 -70.0213
   -70.0203 -70.0199 -70.0196 -70.0189 -70.0189 -70.0176 -70.0174 -70.0171
   -70.0166 -70.0146 -70.0145 -70.0131 -70.0110 -70.0108 -70.0106 -70.0105
   -70.0098 -70.0094 -70.0092 -70.0091 -70.0084 -70.0069 -70.0042 -70.0030
   -70.0023 -70.0016 -70.0007 -69.9962 -69.9927 -69.9920 -69.9848 -69.9785
   -65.1246 -65.1169 -65.1006 -65.0992 -65.0852 -65.0767 -65.0729 -65.0674
   -65.0636 -65.0597 -65.0563 -65.0527 -65.0484 -65.0481 -65.0344 -65.0264
   -32.1174 -32.1114 -32.1091 -32.1085 -32.1045 -32.1015 -32.0926 -32.0922
   -32.0882 -32.0875 -32.0847 -32.0826 -32.0799 -32.0736 -32.0734 -32.0703
   -32.0667 -32.0659 -32.0651 -32.0633 -32.0603 -32.0590 -32.0567 -32.0527
   -32.0516 -32.0511 -32.0502 -32.0494 -32.0478 -32.0459 -32.0447 -32.0438
   -32.0424 -32.0415 -32.0401 -32.0380 -32.0370 -32.0367 -32.0339 -32.0320
   -32.0299 -32.0289 -32.0276 -32.0203 -32.0172 -32.0153 -32.0102 -32.0064
   -10.1168 -10.1063 -10.0438  -9.9135  -9.8796  -9.8392  -9.7974  -9.7280
    -9.6731  -9.6414  -9.6273  -9.6117  -9.5763  -9.5679  -9.5671  -9.5477
    -9.5032  -9.4908  -9.4757  -9.4487  -9.4281  -9.4238  -9.3901  -9.3791
    -9.3637  -9.3432  -9.3256  -9.2906  -9.2466  -9.2071  -9.1940  -9.1888
    -9.1788  -9.1478  -9.0785  -8.9647   1.5713   1.6260   1.6314   1.6508
     1.6643   1.6729   1.6948   1.6981   1.7107   1.7450   1.7620   1.7764
     1.7846   1.7918   1.8254   1.8363   1.8439   1.8749   1.8894   1.9066
     1.9152   1.9239   1.9408   1.9626   1.9768   1.9861   1.9940   2.0189
     2.0313   2.0408   2.0490   2.0648   2.0812   2.0896   2.1134   2.1242
     2.1385   2.1407   2.1493   2.1557   2.1671   2.1686   2.1783   2.1862
     2.2038   2.2209   2.2350   2.2534   2.2720   2.2870   2.2987   2.3004
     2.3211   2.3295   2.3507   2.3620   2.3961   2.4117   2.4274   2.4598
     2.4728   2.4894   2.5091   2.5325   2.5495   2.5599   2.5956   2.6120
     2.6250   2.6395   2.6561   2.6777   2.7073   2.7276   2.7326   2.7673
     2.7755   2.7899   2.8011   2.8244   2.8353   2.8546   2.8807   2.8970
     2.9237   2.9353   2.9505   2.9580   2.9615   2.9792   2.9928   3.0098
     3.0210   3.0281   3.0458   3.0746   3.0816   3.0981   3.1134   3.1322
     3.1770   3.2287   3.2702   3.3261   3.3586   3.4342   3.4568   3.4665
     3.4875   3.5333   3.6011   3.6372   3.6604   3.7209   3.7385   3.7791
     3.7966   3.8335   3.8868   3.9050   3.9876   4.0063   4.0844   4.1193
     4.1438   4.1952   4.2663   4.3365   4.4280   4.5062   4.5731   4.6347
     4.6393   4.6649   4.6890   4.7045   4.7555   4.7789   4.8296   4.8522
     4.9008   4.9842   5.0104   5.0381   5.0638   5.1067   5.1173   5.1320
     5.1560   5.2097   5.2243   5.2399   5.2871   5.3000   5.3229   5.3282
     5.3423   5.3889   5.4061   5.4253   5.4742   5.4810   5.5305   5.5671
     5.5950   5.6080   5.6314   5.6913   5.7281   5.7508   5.7914   5.8211
     5.8277   5.8592   5.8785   5.9049   5.9291   5.9728   6.0149   6.0374
     6.0648   6.0930   6.1061   6.1442   6.1468   6.1829   6.2034   6.2152
     6.2374   6.2466   6.2740   6.2939   6.3107   6.3434   6.3593   6.3918
     6.4454   6.4767   6.5119   6.5405   6.6083   6.6648   6.7194   6.7796
     6.8062   6.8209   6.8581   6.8980  10.5511  10.6008  10.7085  10.9542
    11.8082  11.9002  11.9759  12.2394  13.0089  13.1448  13.2192  13.2470
    13.3513  13.3705  13.4511  13.5038  13.5201  13.6947  13.7306  13.8133
    13.8774  13.9417  13.9621  14.0181  14.1933  14.2684  14.3115  14.3407
    14.4122  14.4585  14.4711  14.5235  14.5389  14.5718  14.6058  14.6077
    15.3921  15.4733  15.5531  15.5688  15.6151  15.6610  15.7587  15.8280
    15.8817  15.9530  16.0226  16.0478  16.1054  16.1908  16.2243  16.3233
    16.4374  16.5469  16.6631  16.7566  16.8130  16.9377  16.9659  17.1116
    17.1801  17.2167  17.2364  17.2608  17.3120  17.3471  17.4058  17.4191
    17.5992  17.6819  17.8613  17.9135  18.0303  18.0789  18.1268  18.3211
    18.3890  18.4134

     occupation numbers
     1.0000   1.0000   1.0000   1.0000   1.0000   1.0000   1.0000   1.0000
     1.0000   1.0000   1.0000   1.0000   1.0000   1.0000   1.0000   1.0000
     1.0000   1.0000   1.0000   1.0000   1.0000   1.0000   1.0000   1.0000
     1.0000   1.0000   1.0000   1.0000   1.0000   1.0000   1.0000   1.0000
     1.0000   1.0000   1.0000   1.0000   1.0000   1.0000   1.0000   1.0000
     1.0000   1.0000   1.0000   1.0000   1.0000   1.0000   1.0000   1.0000
     1.0000   1.0000   1.0000   1.0000   1.0000   1.0000   1.0000   1.0000
     1.0000   1.0000   1.0000   1.0000   1.0000   1.0000   1.0000   1.0000
     1.0000   1.0000   1.0000   1.0000   1.0000   1.0000   1.0000   1.0000
     1.0000   1.0000   1.0000   1.0000   1.0000   1.0000   1.0000   1.0000
     1.0000   1.0000   1.0000   1.0000   1.0000   1.0000   1.0000   1.0000
     1.0000   1.0000   1.0000   1.0000   1.0000   1.0000   1.0000   1.0000
     1.0000   1.0000   1.0000   1.0000   1.0000   1.0000   1.0000   1.0000
     1.0000   1.0000   1.0000   1.0000   1.0000   1.0000   1.0000   1.0000
     1.0000   1.0000   1.0000   1.0000   1.0000   1.0000   1.0000   1.0000
     1.0000   1.0000   1.0000   1.0000   1.0000   1.0000   1.0000   1.0000
     1.0000   1.0000   1.0000   1.0000   1.0000   1.0000   1.0000   1.0000
     1.0000   1.0000   1.0000   1.0000   1.0000   1.0000   1.0000   1.0000
     1.0000   1.0000   1.0000   1.0000   1.0000   1.0000   1.0000   1.0000
     1.0000   1.0000   1.0000   1.0000   1.0000   1.0000   1.0000   1.0000
     1.0000   1.0000   1.0000   1.0000   1.0000   1.0000   1.0000   1.0000
     1.0000   1.0000   1.0000   1.0000   1.0000   1.0000   1.0000   1.0000
     1.0000   1.0000   1.0000   1.0000   1.0000   1.0000   1.0000   1.0000
     1.0000   1.0000   1.0000   1.0000   1.0000   1.0000   1.0000   1.0000
     1.0000   1.0000   1.0000   1.0000   1.0000   1.0000   1.0000   1.0000
     1.0000   1.0000   1.0000   1.0000   1.0000   1.0000   1.0000   1.0000
     1.0000   1.0000   1.0000   1.0000   1.0000   1.0000   1.0000   1.0000
     1.0000   1.0000   1.0000   1.0000   1.0000   1.0000   1.0000   1.0000
     1.0000   1.0000   1.0000   1.0000   1.0000   1.0000   1.0000   1.0000
     1.0000   1.0000   1.0000   1.0000   1.0000   1.0000   1.0000   1.0000
     1.0000   1.0000   1.0000   1.0000   1.0000   1.0000   1.0000   1.0000
     1.0000   1.0000   1.0000   1.0000   1.0000   1.0000   1.0000   1.0000
     1.0000   1.0000   1.0000   1.0000   1.0000   1.0000   1.0000   1.0000
     1.0000   1.0000   1.0000   1.0000   1.0000   1.0000   1.0000   1.0000
     1.0000   1.0000   1.0000   1.0000   1.0000   1.0000   1.0000   1.0000
     1.0000   1.0000   1.0000   1.0000   1.0000   1.0000   1.0000   1.0000
     1.0000   1.0000   1.0000   1.0000   1.0000   1.0000   1.0000   1.0000
     1.0000   1.0000   1.0000   1.0000   1.0000   1.0000   1.0000   1.0000
     1.0000   1.0000   1.0000   1.0000   1.0000   1.0000   1.0000   1.0000
     1.0000   1.0000   1.0000   1.0000   1.0000   1.0000   1.0000   1.0000
     1.0000   1.0000   1.0000   1.0000   1.0000   1.0000   1.0000   1.0000
     1.0000   1.0000   1.0000   1.0000   1.0000   1.0000   1.0000   1.0000
     1.0000   1.0000   1.0000   1.0000   1.0000   1.0000   1.0000   1.0000
     1.0000   1.0000   1.0000   1.0000   1.0000   1.0000   1.0000   1.0000
     1.0000   1.0000   1.0000   1.0000   1.0000   1.0000   1.0000   1.0000
     1.0000   1.0000   1.0000   1.0000   1.0000   1.0000   1.0000   1.0000
     1.0000   1.0000   1.0000   1.0000   1.0000   1.0000   1.0000   1.0000
     1.0000   1.0000   1.0000   1.0000   1.0000   1.0000   1.0000   1.0000
     1.0000   1.0000   1.0000   1.0000   0.0000   0.0000   0.0000   0.0000
     0.0000   0.0000   0.0000   0.0000   0.0000   0.0000   0.0000   0.0000
     0.0000   0.0000   0.0000   0.0000   0.0000   0.0000   0.0000   0.0000
     0.0000   0.0000   0.0000   0.0000   0.0000   0.0000   0.0000   0.0000
     0.0000   0.0000   0.0000   0.0000   0.0000   0.0000   0.0000   0.0000
     0.0000   0.0000   0.0000   0.0000   0.0000   0.0000   0.0000   0.0000
     0.0000   0.0000   0.0000   0.0000   0.0000   0.0000   0.0000   0.0000
     0.0000   0.0000   0.0000   0.0000   0.0000   0.0000   0.0000   0.0000
     0.0000   0.0000   0.0000   0.0000   0.0000   0.0000   0.0000   0.0000
     0.0000   0.0000   0.0000   0.0000   0.0000   0.0000   0.0000   0.0000
     0.0000   0.0000

     the Fermi energy is     8.0405 ev

!    total energy              =  -12392.23121634 Ry
     Harris-Foulkes estimate   =  -12392.23121634 Ry
     estimated scf accuracy    <          1.0E-09 Ry

     The total energy is the sum of the following terms:

     one-electron contribution =  -10405.27689956 Ry
     hartree contribution      =    5457.64190647 Ry
     xc contribution           =   -1365.39757546 Ry
     ewald contribution        =   -6079.19864780 Ry
     smearing contrib. (-TS)   =       0.00000000 Ry

     convergence has been achieved in  14 iterations

     Writing output data file ZnO.save/

     General routines

     Parallel routines

   This run was terminated on:   1:39: 0  15Jul2022

   JOB DONE.