     Program PWSCF v.6.4.1 starts on 16Jun2022 at 14:25:49

     K-points division:     npool     =       4
     R & G space division:  proc/nbgrp/npool/nimage =      16
     Waiting for input...
     Reading input from standard input

     Current dimensions of program PWSCF are:
     Max number of different atomic species (ntypx) = 10
     Max number of k-points (npk) =  40000
     Max angular momentum in pseudopotentials (lmaxx) =  3

NOTICE: Bravais lattice has wrong number ( 7) of symmetries - symmetries are disabled

     bravais-lattice index     =            0
     lattice parameter (alat)  =       6.1086  a.u.
     unit-cell volume          =     318.5194 (a.u.)^3
     number of atoms/cell      =            4
     number of atomic types    =            2
     number of electrons       =        52.00
     number of Kohn-Sham states=           26
     kinetic-energy cutoff     =      80.0000  Ry
     charge density cutoff     =     600.0000  Ry
     convergence threshold     =      1.0E-06
     mixing beta               =       0.5000
     number of iterations used =            8  plain     mixing
     Exchange-correlation      = SLA  PW   PSX  PSC ( 1  4 10  8 0 0)
     nstep                     =          200

     celldm(1)=   6.108563  celldm(2)=   0.000000  celldm(3)=   0.000000
     celldm(4)=   0.000000  celldm(5)=   0.000000  celldm(6)=   0.000000

     crystal axes: (cart. coord. in units of alat)
               a(1) = (   1.000000   0.000000   0.000000 )
               a(2) = (  -0.500000   0.866025   0.000000 )
               a(3) = (   0.000000   0.000001   1.613571 )

     reciprocal axes: (cart. coord. in units 2 pi/alat)
               b(1) = (  1.000000  0.577350 -0.000000 )
               b(2) = ( -0.000000  1.154701 -0.000000 )
               b(3) = ( -0.000000 -0.000000  0.619743 )

     PseudoPot. # 1 for Zn read from file:
     ./GBRV_PBEsol/zn_pbesol_v1.uspp.F.UPF
     MD5 check sum: 7d8615e52efe7c1e2b1899de8658bae2
     Pseudo is Ultrasoft, Zval = 20.0
     Generated by new atomic code, or converted to UPF format
     Using radial grid of  943 points,  6 beta functions with:
                l(1) =   0
                l(2) =   0
                l(3) =   1
                l(4) =   1
                l(5) =   2
                l(6) =   2
     Q(r) pseudized with  8 coefficients,  rinner =    1.100   1.100   1.100
                                                       1.100   1.100

     PseudoPot. # 2 for O  read from file:
     ./GBRV_PBEsol/o_pbesol_v1.2.uspp.F.UPF
     MD5 check sum: 501638753501ef6325af9037351f7734
     Pseudo is Ultrasoft + core correction, Zval =  6.0
     Generated by new atomic code, or converted to UPF format
     Using radial grid of  737 points,  5 beta functions with:
                l(1) =   0
                l(2) =   0
                l(3) =   1
                l(4) =   1
                l(5) =   2
     Q(r) pseudized with  8 coefficients,  rinner =    0.900   0.900   0.900
                                                       0.900   0.900

     atomic species   valence    mass     pseudopotential
        Zn            20.00    65.38000     Zn( 1.00)
        O              6.00    15.99900     O ( 1.00)

     No symmetry found

                                    s                        frac. trans.

      isym =  1     identity

 cryst.   s( 1) = (     1          0          0      )
                  (     0          1          0      )
                  (     0          0          1      )

 cart.    s( 1) = (  1.0000000  0.0000000 -0.0000000 )
                  ( -0.0000000  1.0000000  0.0000000 )
                  ( -0.0000000  0.0000000  1.0000000 )

   Cartesian axes

     site n.     atom                  positions (alat units)
         1           O   tau(   1) = (   0.5000002   0.2886755   0.0118532  )
         2           O   tau(   2) = (   0.0000002   0.5773496   0.8186386  )
         3           Zn  tau(   3) = (   0.5000001   0.2886750   0.6234101  )
         4           Zn  tau(   4) = (   0.0000000   0.5773516   1.4301957  )

   Crystallographic axes

     site n.     atom                  positions (cryst. coord.)
         1           O   tau(   1) = (  0.6666670  0.3333337  0.0073459  )
         2           O   tau(   2) = (  0.3333329  0.6666657  0.5073458  )
         3           Zn  tau(   3) = (  0.6666664  0.3333329  0.3863542  )
         4           Zn  tau(   4) = (  0.3333336  0.6666677  0.8863542  )

     number of k points=   260
                       cart. coord. in units 2pi/alat
        k(    1) = (   0.0000000   0.0000000   0.0000000), wk =   0.0039062
        k(    2) = (  -0.0000000  -0.0000000   0.0774679), wk =   0.0078125
        k(    3) = (  -0.0000000  -0.0000000   0.1549358), wk =   0.0078125
        k(    4) = (  -0.0000000  -0.0000001   0.2324038), wk =   0.0078125
        k(    5) = (   0.0000000   0.0000001  -0.3098717), wk =   0.0039062
        k(    6) = (  -0.0000000   0.1443376  -0.0000000), wk =   0.0078125
        k(    7) = (  -0.0000000   0.1443376   0.0774679), wk =   0.0078125
        k(    8) = (  -0.0000000   0.1443375   0.1549358), wk =   0.0078125
        k(    9) = (  -0.0000000   0.1443375   0.2324037), wk =   0.0078125
        k(   10) = (   0.0000000   0.1443377  -0.3098717), wk =   0.0078125
        k(   11) = (   0.0000000   0.1443377  -0.2324038), wk =   0.0078125
        k(   12) = (  -0.0000000   0.1443376  -0.1549359), wk =   0.0078125
        k(   13) = (  -0.0000000   0.1443376  -0.0774680), wk =   0.0078125
        k(   14) = (  -0.0000000   0.2886752  -0.0000001), wk =   0.0078125
        k(   15) = (  -0.0000000   0.2886751   0.0774678), wk =   0.0078125
        k(   16) = (  -0.0000001   0.2886751   0.1549357), wk =   0.0078125
        k(   17) = (  -0.0000001   0.2886751   0.2324037), wk =   0.0078125
        k(   18) = (  -0.0000000   0.2886753  -0.3098718), wk =   0.0078125
        k(   19) = (  -0.0000000   0.2886752  -0.2324039), wk =   0.0078125
        k(   20) = (  -0.0000000   0.2886752  -0.1549359), wk =   0.0078125
        k(   21) = (  -0.0000000   0.2886752  -0.0774680), wk =   0.0078125
        k(   22) = (  -0.0000001   0.4330127  -0.0000001), wk =   0.0078125
        k(   23) = (  -0.0000001   0.4330127   0.0774678), wk =   0.0078125
        k(   24) = (  -0.0000001   0.4330127   0.1549357), wk =   0.0078125
        k(   25) = (  -0.0000001   0.4330127   0.2324036), wk =   0.0078125
        k(   26) = (  -0.0000000   0.4330128  -0.3098718), wk =   0.0078125
        k(   27) = (  -0.0000000   0.4330128  -0.2324039), wk =   0.0078125
        k(   28) = (  -0.0000000   0.4330128  -0.1549360), wk =   0.0078125
        k(   29) = (  -0.0000000   0.4330128  -0.0774681), wk =   0.0078125
        k(   30) = (   0.0000001  -0.5773503   0.0000002), wk =   0.0039062
        k(   31) = (   0.0000001  -0.5773503   0.0774681), wk =   0.0078125
        k(   32) = (   0.0000001  -0.5773504   0.1549360), wk =   0.0078125
        k(   33) = (   0.0000001  -0.5773504   0.2324040), wk =   0.0078125
        k(   34) = (   0.0000001  -0.5773502  -0.3098715), wk =   0.0039062
        k(   35) = (   0.1250000   0.0721688  -0.0000000), wk =   0.0078125
        k(   36) = (   0.1250000   0.0721687   0.0774679), wk =   0.0078125
        k(   37) = (   0.1250000   0.0721687   0.1549358), wk =   0.0078125
        k(   38) = (   0.1250000   0.0721687   0.2324037), wk =   0.0078125
        k(   39) = (   0.1250000   0.0721689  -0.3098717), wk =   0.0078125
        k(   40) = (   0.1250000   0.0721688  -0.2324038), wk =   0.0078125
        k(   41) = (   0.1250000   0.0721688  -0.1549359), wk =   0.0078125
        k(   42) = (   0.1250000   0.0721688  -0.0774680), wk =   0.0078125
        k(   43) = (   0.1250000   0.2165064  -0.0000001), wk =   0.0078125
        k(   44) = (   0.1250000   0.2165063   0.0774678), wk =   0.0078125
        k(   45) = (   0.1250000   0.2165063   0.1549358), wk =   0.0078125
        k(   46) = (   0.1249999   0.2165063   0.2324037), wk =   0.0078125
        k(   47) = (   0.1250000   0.2165065  -0.3098718), wk =   0.0078125
        k(   48) = (   0.1250000   0.2165064  -0.2324039), wk =   0.0078125
        k(   49) = (   0.1250000   0.2165064  -0.1549359), wk =   0.0078125
        k(   50) = (   0.1250000   0.2165064  -0.0774680), wk =   0.0078125
        k(   51) = (   0.1250000   0.3608439  -0.0000001), wk =   0.0078125
        k(   52) = (   0.1249999   0.3608439   0.0774678), wk =   0.0078125
        k(   53) = (   0.1249999   0.3608439   0.1549357), wk =   0.0078125
        k(   54) = (   0.1249999   0.3608439   0.2324036), wk =   0.0078125
        k(   55) = (   0.1250000   0.3608440  -0.3098718), wk =   0.0078125
        k(   56) = (   0.1250000   0.3608440  -0.2324039), wk =   0.0078125
        k(   57) = (   0.1250000   0.3608440  -0.1549360), wk =   0.0078125
        k(   58) = (   0.1250000   0.3608440  -0.0774681), wk =   0.0078125
        k(   59) = (   0.1249999   0.5051815  -0.0000002), wk =   0.0078125
        k(   60) = (   0.1249999   0.5051815   0.0774677), wk =   0.0078125
[...]
        k(  246) = (  -0.5000000   0.0000001  -0.1549358), wk =   0.0078125
        k(  247) = (  -0.5000000   0.0000001  -0.0774679), wk =   0.0078125
        k(  248) = (  -0.5000000   0.1443376   0.0000000), wk =   0.0078125
        k(  249) = (  -0.5000000   0.1443376   0.0774679), wk =   0.0078125
        k(  250) = (  -0.5000000   0.1443376   0.1549359), wk =   0.0078125
        k(  251) = (  -0.5000000   0.1443376   0.2324038), wk =   0.0078125
        k(  252) = (  -0.5000000   0.1443377  -0.3098717), wk =   0.0078125
        k(  253) = (  -0.5000000   0.1443377  -0.2324038), wk =   0.0078125
        k(  254) = (  -0.5000000   0.1443377  -0.1549358), wk =   0.0078125
        k(  255) = (  -0.5000000   0.1443377  -0.0774679), wk =   0.0078125
        k(  256) = (  -0.4999999  -0.8660254   0.0000003), wk =   0.0039062
        k(  257) = (  -0.4999999  -0.8660254   0.0774683), wk =   0.0078125
        k(  258) = (  -0.4999999  -0.8660255   0.1549362), wk =   0.0078125
        k(  259) = (  -0.4999999  -0.8660255   0.2324041), wk =   0.0078125
        k(  260) = (  -0.4999998  -0.8660253  -0.3098713), wk =   0.0039062

                       cryst. coord.
        k(    1) = (   0.0000000   0.0000000   0.0000000), wk =   0.0039062
        k(    2) = (   0.0000000  -0.0000000   0.1250000), wk =   0.0078125
        k(    3) = (   0.0000000  -0.0000000   0.2500000), wk =   0.0078125
        k(    4) = (   0.0000000  -0.0000000   0.3750000), wk =   0.0078125
        k(    5) = (  -0.0000000   0.0000000  -0.5000000), wk =   0.0039062
        k(    6) = (   0.0000000   0.1250000   0.0000000), wk =   0.0078125
        k(    7) = (  -0.0000000   0.1250000   0.1250000), wk =   0.0078125
        k(    8) = (   0.0000000   0.1250000   0.2500000), wk =   0.0078125
        k(    9) = (  -0.0000000   0.1250000   0.3750000), wk =   0.0078125
        k(   10) = (   0.0000000   0.1250000  -0.5000000), wk =   0.0078125
        k(   11) = (   0.0000000   0.1250000  -0.3750000), wk =   0.0078125
[...]
        k(   24) = (  -0.0000001   0.4330127   0.1549357), wk =   0.0078125
        k(   25) = (  -0.0000001   0.4330127   0.2324036), wk =   0.0078125
        k(   26) = (  -0.0000000   0.4330128  -0.3098718), wk =   0.0078125
        k(   27) = (  -0.0000000   0.4330128  -0.2324039), wk =   0.0078125
        k(   28) = (  -0.0000000   0.4330128  -0.1549360), wk =   0.0078125
        k(   29) = (  -0.0000000   0.4330128  -0.0774681), wk =   0.0078125
        k(   30) = (   0.0000001  -0.5773503   0.0000002), wk =   0.0039062
        k(   31) = (   0.0000001  -0.5773503   0.0774681), wk =   0.0078125
        k(   32) = (   0.0000001  -0.5773504   0.1549360), wk =   0.0078125
        k(   33) = (   0.0000001  -0.5773504   0.2324040), wk =   0.0078125
        k(   34) = (   0.0000001  -0.5773502  -0.3098715), wk =   0.0039062
        k(   35) = (   0.1250000   0.0721688  -0.0000000), wk =   0.0078125
        k(   36) = (   0.1250000   0.0721687   0.0774679), wk =   0.0078125
        k(   37) = (   0.1250000   0.0721687   0.1549358), wk =   0.0078125
        k(   38) = (   0.1250000   0.0721687   0.2324037), wk =   0.0078125
        k(   39) = (   0.1250000   0.0721689  -0.3098717), wk =   0.0078125
        k(   40) = (   0.1250000   0.0721688  -0.2324038), wk =   0.0078125
        k(   41) = (   0.1250000   0.0721688  -0.1549359), wk =   0.0078125
        k(   42) = (   0.1250000   0.0721688  -0.0774680), wk =   0.0078125
        k(   43) = (   0.1250000   0.2165064  -0.0000001), wk =   0.0078125
        k(   44) = (   0.1250000   0.2165063   0.0774678), wk =   0.0078125
        k(   45) = (   0.1250000   0.2165063   0.1549358), wk =   0.0078125
        k(   46) = (   0.1249999   0.2165063   0.2324037), wk =   0.0078125
        k(   47) = (   0.1250000   0.2165065  -0.3098718), wk =   0.0078125
        k(   48) = (   0.1250000   0.2165064  -0.2324039), wk =   0.0078125
        k(   49) = (   0.1250000   0.2165064  -0.1549359), wk =   0.0078125
        k(   50) = (   0.1250000   0.2165064  -0.0774680), wk =   0.0078125
        k(   51) = (   0.1250000   0.3608439  -0.0000001), wk =   0.0078125
        k(   52) = (   0.1249999   0.3608439   0.0774678), wk =   0.0078125
        k(   53) = (   0.1249999   0.3608439   0.1549357), wk =   0.0078125
        k(   54) = (   0.1249999   0.3608439   0.2324036), wk =   0.0078125
        k(   55) = (   0.1250000   0.3608440  -0.3098718), wk =   0.0078125
        k(   56) = (   0.1250000   0.3608440  -0.2324039), wk =   0.0078125
        k(   57) = (   0.1250000   0.3608440  -0.1549360), wk =   0.0078125
        k(   58) = (   0.1250000   0.3608440  -0.0774681), wk =   0.0078125
        k(   59) = (   0.1249999   0.5051815  -0.0000002), wk =   0.0078125
        k(   60) = (   0.1249999   0.5051815   0.0774677), wk =   0.0078125
[...]
        k(  246) = (  -0.5000000   0.0000001  -0.1549358), wk =   0.0078125
        k(  247) = (  -0.5000000   0.0000001  -0.0774679), wk =   0.0078125
        k(  248) = (  -0.5000000   0.1443376   0.0000000), wk =   0.0078125
        k(  249) = (  -0.5000000   0.1443376   0.0774679), wk =   0.0078125
        k(  250) = (  -0.5000000   0.1443376   0.1549359), wk =   0.0078125
        k(  251) = (  -0.5000000   0.1443376   0.2324038), wk =   0.0078125
        k(  252) = (  -0.5000000   0.1443377  -0.3098717), wk =   0.0078125
        k(  253) = (  -0.5000000   0.1443377  -0.2324038), wk =   0.0078125
        k(  254) = (  -0.5000000   0.1443377  -0.1549358), wk =   0.0078125
        k(  255) = (  -0.5000000   0.1443377  -0.0774679), wk =   0.0078125
        k(  256) = (  -0.4999999  -0.8660254   0.0000003), wk =   0.0039062
        k(  257) = (  -0.4999999  -0.8660254   0.0774683), wk =   0.0078125
        k(  258) = (  -0.4999999  -0.8660255   0.1549362), wk =   0.0078125
        k(  259) = (  -0.4999999  -0.8660255   0.2324041), wk =   0.0078125
        k(  260) = (  -0.4999998  -0.8660253  -0.3098713), wk =   0.0039062

                       cryst. coord.
        k(    1) = (   0.0000000   0.0000000   0.0000000), wk =   0.0039062
        k(    2) = (   0.0000000  -0.0000000   0.1250000), wk =   0.0078125
        k(    3) = (   0.0000000  -0.0000000   0.2500000), wk =   0.0078125
        k(    4) = (   0.0000000  -0.0000000   0.3750000), wk =   0.0078125
        k(    5) = (  -0.0000000   0.0000000  -0.5000000), wk =   0.0039062
        k(    6) = (   0.0000000   0.1250000   0.0000000), wk =   0.0078125
        k(    7) = (  -0.0000000   0.1250000   0.1250000), wk =   0.0078125
        k(    8) = (   0.0000000   0.1250000   0.2500000), wk =   0.0078125
        k(    9) = (  -0.0000000   0.1250000   0.3750000), wk =   0.0078125
        k(   10) = (   0.0000000   0.1250000  -0.5000000), wk =   0.0078125
        k(   11) = (   0.0000000   0.1250000  -0.3750000), wk =   0.0078125
        k(   12) = (   0.0000000   0.1250000  -0.2500000), wk =   0.0078125
        k(   13) = (   0.0000000   0.1250000  -0.1250000), wk =   0.0078125
        k(   14) = (   0.0000000   0.2500000   0.0000000), wk =   0.0078125
        k(   15) = (   0.0000000   0.2500000   0.1250000), wk =   0.0078125
        k(   16) = (  -0.0000000   0.2500000   0.2500000), wk =   0.0078125
        k(   17) = (   0.0000000   0.2500000   0.3750000), wk =   0.0078125
        k(   18) = (   0.0000000   0.2500000  -0.5000000), wk =   0.0078125
        k(   19) = (   0.0000000   0.2500000  -0.3750000), wk =   0.0078125
        k(   20) = (   0.0000000   0.2500000  -0.2500000), wk =   0.0078125
        k(   21) = (   0.0000000   0.2500000  -0.1250000), wk =   0.0078125
        k(   22) = (  -0.0000000   0.3750000   0.0000000), wk =   0.0078125
        k(   23) = (   0.0000000   0.3750000   0.1250000), wk =   0.0078125
        k(   24) = (  -0.0000000   0.3750000   0.2500000), wk =   0.0078125
        k(   25) = (  -0.0000000   0.3750000   0.3750000), wk =   0.0078125
        k(   26) = (  -0.0000000   0.3750000  -0.5000000), wk =   0.0078125
        k(   27) = (   0.0000000   0.3750000  -0.3750000), wk =   0.0078125
        k(   28) = (   0.0000000   0.3750000  -0.2500000), wk =   0.0078125
        k(   29) = (   0.0000000   0.3750000  -0.1250000), wk =   0.0078125
        k(   30) = (  -0.0000000  -0.5000000  -0.0000000), wk =   0.0039062
        k(   31) = (   0.0000000  -0.5000000   0.1250000), wk =   0.0078125
        k(   32) = (  -0.0000000  -0.5000000   0.2500000), wk =   0.0078125
        k(   33) = (   0.0000000  -0.5000000   0.3750000), wk =   0.0078125
        k(   34) = (   0.0000000  -0.5000000  -0.5000000), wk =   0.0039062
        k(   35) = (   0.1250000   0.0000000  -0.0000000), wk =   0.0078125
        k(   36) = (   0.1250000   0.0000000   0.1250000), wk =   0.0078125
        k(   37) = (   0.1250000   0.0000000   0.2500000), wk =   0.0078125
        k(   38) = (   0.1250000   0.0000000   0.3750000), wk =   0.0078125
        k(   39) = (   0.1250000   0.0000000  -0.5000000), wk =   0.0078125
        k(   40) = (   0.1250000   0.0000000  -0.3750000), wk =   0.0078125
        k(   41) = (   0.1250000   0.0000000  -0.2500000), wk =   0.0078125
        k(   42) = (   0.1250000   0.0000000  -0.1250000), wk =   0.0078125
        k(   43) = (   0.1250000   0.1250000   0.0000000), wk =   0.0078125
        k(   44) = (   0.1250000   0.1250000   0.1250000), wk =   0.0078125
        k(   45) = (   0.1250000   0.1250000   0.2500000), wk =   0.0078125
        k(   46) = (   0.1250000   0.1250000   0.3750000), wk =   0.0078125
        k(   47) = (   0.1250000   0.1250000  -0.5000000), wk =   0.0078125
        k(   48) = (   0.1250000   0.1250000  -0.3750000), wk =   0.0078125
        k(   49) = (   0.1250000   0.1250000  -0.2500000), wk =   0.0078125
        k(   50) = (   0.1250000   0.1250000  -0.1250000), wk =   0.0078125
        k(   51) = (   0.1250000   0.2500000   0.0000000), wk =   0.0078125
        k(   52) = (   0.1250000   0.2500000   0.1250000), wk =   0.0078125
        k(   53) = (   0.1250000   0.2500000   0.2500000), wk =   0.0078125
        k(   54) = (   0.1250000   0.2500000   0.3750000), wk =   0.0078125
        k(   55) = (   0.1250000   0.2500000  -0.5000000), wk =   0.0078125
        k(   56) = (   0.1250000   0.2500000  -0.3750000), wk =   0.0078125
        k(   57) = (   0.1250000   0.2500000  -0.2500000), wk =   0.0078125
        k(   58) = (   0.1250000   0.2500000  -0.1250000), wk =   0.0078125
        k(   59) = (   0.1250000   0.3750000   0.0000000), wk =   0.0078125
        k(   60) = (   0.1250000   0.3750000   0.1250000), wk =   0.0078125
[...]
        k(  246) = (  -0.5000000   0.2500000  -0.2500000), wk =   0.0078125
        k(  247) = (  -0.5000000   0.2500000  -0.1250000), wk =   0.0078125
        k(  248) = (  -0.5000000   0.3750000   0.0000000), wk =   0.0078125
        k(  249) = (  -0.5000000   0.3750000   0.1250000), wk =   0.0078125
        k(  250) = (  -0.5000000   0.3750000   0.2500000), wk =   0.0078125
        k(  251) = (  -0.5000000   0.3750000   0.3750000), wk =   0.0078125
        k(  252) = (  -0.5000000   0.3750000  -0.5000000), wk =   0.0078125
        k(  253) = (  -0.5000000   0.3750000  -0.3750000), wk =   0.0078125
        k(  254) = (  -0.5000000   0.3750000  -0.2500000), wk =   0.0078125
        k(  255) = (  -0.5000000   0.3750000  -0.1250000), wk =   0.0078125
        k(  256) = (  -0.5000000  -0.5000000  -0.0000000), wk =   0.0039062
        k(  257) = (  -0.5000000  -0.5000000   0.1250000), wk =   0.0078125
        k(  258) = (  -0.5000000  -0.5000000   0.2500000), wk =   0.0078125
        k(  259) = (  -0.5000000  -0.5000000   0.3750000), wk =   0.0078125
        k(  260) = (  -0.5000000  -0.5000000  -0.5000000), wk =   0.0039062

     Check: negative core charge=   -0.000003

     Initial potential from superposition of free atoms

     starting charge   51.99974, renormalised to   52.00000
     Starting wfcs are   34 randomized atomic wfcs

     Self-consistent Calculation

[...]

     total energy              =    -987.08036703 Ry
     Harris-Foulkes estimate   =    -987.08036610 Ry
     estimated scf accuracy    <       0.00000238 Ry

     iteration #  7     ecut=    80.00 Ry     beta= 0.50
     Davidson diagonalization with overlap
     ethr =  4.58E-09,  avg # of iterations =  2.0

     End of self-consistent calculation

[...]

          k = 0.3750 0.0722-0.0775 (  3840 PWs)   bands (ev):

[...]

          k =-0.5000-0.8660-0.3099 (  3856 PWs)   bands (ev):

  -114.3106-114.3106 -68.6717 -68.6717 -68.6694 -68.6694 -68.6681 -68.6681
    -8.4079  -8.4079   2.5769   2.5769   3.5176   3.5176   3.5755   3.5755
     4.4405   4.4405   4.5277   4.5277   4.9960   4.9960   7.2623   7.2623
     7.3921   7.3921

     occupation numbers
     1.0000   1.0000   1.0000   1.0000   1.0000   1.0000   1.0000   1.0000
     1.0000   1.0000   1.0000   1.0000   1.0000   1.0000   1.0000   1.0000
     1.0000   1.0000   1.0000   1.0000   1.0000   1.0000   1.0000   1.0000
     1.0000   1.0000

     highest occupied level (ev):     8.8018

!    total energy              =    -987.08036725 Ry
     Harris-Foulkes estimate   =    -987.08036724 Ry
     estimated scf accuracy    <          8.2E-09 Ry

     The total energy is the sum of the following terms:

     one-electron contribution =    -803.13553427 Ry
     hartree contribution      =     423.01487088 Ry
     xc contribution           =     -98.08044396 Ry
     ewald contribution        =    -508.87925990 Ry

     convergence has been achieved in   7 iterations

     Forces acting on atoms (cartesian axes, Ry/au):

     atom    1 type  2   force =    -0.00000092   -0.00000042   -0.00002307
     atom    2 type  2   force =    -0.00000042   -0.00000018   -0.00002303
     atom    3 type  1   force =     0.00000008   -0.00000002    0.00002405
     atom    4 type  1   force =     0.00000126    0.00000061    0.00002205
     The non-local contrib.  to forces
     atom    1 type  2   force =     0.00000093   -0.00000261   -0.00345827
     atom    2 type  2   force =     0.00000100    0.00000115   -0.00345758
     atom    3 type  1   force =     0.00000210   -0.00000195    0.01175547
     atom    4 type  1   force =     0.00000220    0.00000002    0.01175516
     The ionic contribution  to forces
     atom    1 type  2   force =    -0.00001228    0.00002924    0.08769447
     atom    2 type  2   force =    -0.00001228   -0.00001079    0.08770021
     atom    3 type  1   force =     0.00001398   -0.00000957   -0.08769514
     atom    4 type  1   force =     0.00001058   -0.00000888   -0.08769954
     The local contribution  to forces
     atom    1 type  2   force =     0.00001032   -0.00002700   -0.08433138
     atom    2 type  2   force =     0.00001041    0.00000975   -0.08433785
     atom    3 type  1   force =    -0.00001606    0.00001137    0.07601980
     atom    4 type  1   force =    -0.00001166    0.00000954    0.07602268
     The core correction contribution to forces
     atom    1 type  2   force =    -0.00000001    0.00000000    0.00004010
     atom    2 type  2   force =    -0.00000001   -0.00000002    0.00004009
     atom    3 type  1   force =     0.00000000    0.00000000    0.00000000
     atom    4 type  1   force =     0.00000000    0.00000000    0.00000000
     The Hubbard contrib.    to forces
     atom    1 type  2   force =     0.00000000    0.00000000    0.00000000
     atom    2 type  2   force =     0.00000000    0.00000000    0.00000000
     atom    3 type  1   force =     0.00000000    0.00000000    0.00000000
     atom    4 type  1   force =     0.00000000    0.00000000    0.00000000
     The SCF correction term to forces
     atom    1 type  2   force =     0.00000000    0.00000000    0.00000000
     atom    2 type  2   force =     0.00000000    0.00000000    0.00000000
     atom    3 type  1   force =     0.00000000    0.00000000    0.00000000
     atom    4 type  1   force =     0.00000000    0.00000000    0.00000000

     Total force =     0.000000     Total SCF correction =     0.000000

     Computing stress (Cartesian axis) and pressure

          total   stress  (Ry/bohr**3)                   (kbar)     P=    0.62
   0.00000311  -0.00000001  -0.00000000          0.46     -0.00     -0.00
  -0.00000001   0.00000311  -0.00000001         -0.00      0.46     -0.00
  -0.00000000  -0.00000001   0.00000649         -0.00     -0.00      0.95

     kinetic stress (kbar)  33918.77     -0.00      0.00
                               -0.00  33918.77     -0.00
                                0.00     -0.00  33945.35

     local   stress (kbar)  -3204.86     -0.02      0.03
                               -0.02  -3204.98     -0.09
                                0.03     -0.09  -7401.74

     nonloc. stress (kbar)  -1684.22      0.00      0.00
                                0.00  -1684.22      0.00
                                0.00      0.00  -1695.54

     hartree stress (kbar)  64459.15      0.01     -0.01
                                0.01  64459.20      0.04
                               -0.01      0.04  66446.89

     exc-cor stress (kbar) -14167.27      0.00     -0.00
                                0.00 -14167.27      0.00
                               -0.00      0.00 -14167.22

     corecor stress (kbar)   -249.35     -0.00      0.00
                               -0.00   -249.35      0.00
                                0.00      0.00   -249.37

     ewald   stress (kbar) -79071.75      0.01     -0.02
                                0.01 -79071.69      0.05
                               -0.02      0.05 -76877.41

     hubbard stress (kbar)      0.00      0.00      0.00
                                0.00      0.00      0.00
                                0.00      0.00      0.00

     london  stress (kbar)      0.00      0.00      0.00
                                0.00      0.00      0.00
                                0.00      0.00      0.00

     DFT-D3  stress (kbar)      0.00      0.00      0.00
                                0.00      0.00      0.00
                                0.00      0.00      0.00

     XDM     stress (kbar)      0.00      0.00      0.00
                                0.00      0.00      0.00
                                0.00      0.00      0.00

     dft-nl  stress (kbar)      0.00      0.00      0.00
                                0.00      0.00      0.00
                                0.00      0.00      0.00

     TS-vdW  stress (kbar)      0.00      0.00      0.00
                                0.00      0.00      0.00
                                0.00      0.00      0.00

     Writing output data file ZnO.save/

     General routines

     Parallel routines

   This run was terminated on:  14:26:13  16Jun2022

   JOB DONE.