     Program PWSCF v.6.4.1 starts on  8Nov2021 at 21:44:33

     K-points division:     npool     =       8
     R & G space division:  proc/nbgrp/npool/nimage =      16
     Waiting for input...
     Reading input from standard input
Warning: card &IONS ignored
Warning: card   UPSCALE           = 100.D0, ignored
Warning: card / ignored
Warning: card &CELL ignored
Warning: card   CELL_DYNAMICS     = 'BFGS' ignored
Warning: card   PRESS_CONV_THR    = 0.5D0 ignored
Warning: card   CELL_DOFREE = 'ALL' ignored
Warning: card / ignored

     Current dimensions of program PWSCF are:
     Max number of different atomic species (ntypx) = 10
     Max number of k-points (npk) =  40000
     Max angular momentum in pseudopotentials (lmaxx) =  3

     bravais-lattice index     =            0
     lattice parameter (alat)  =      19.5815  a.u.
     unit-cell volume          =    5459.1992 (a.u.)^3
     number of atoms/cell      =           72
     number of atomic types    =            3
     number of electrons       =       816.00
     number of Kohn-Sham states=          490
     kinetic-energy cutoff     =      60.0000  Ry
     charge density cutoff     =     500.0000  Ry
     convergence threshold     =      1.0E-08
     mixing beta               =       0.5000
     number of iterations used =            8  plain     mixing
     Exchange-correlation      = SLA  PW   PSX  PSC ( 1  4 10  8 0 0)

     celldm(1)=  19.581452  celldm(2)=   0.000000  celldm(3)=   0.000000
     celldm(4)=   0.000000  celldm(5)=   0.000000  celldm(6)=   0.000000

     crystal axes: (cart. coord. in units of alat)
               a(1) = (   1.000000  -0.000655  -0.000032 )
               a(2) = (  -0.500566   0.865600   0.000179 )
               a(3) = (  -0.000039   0.000264   0.840314 )

     reciprocal axes: (cart. coord. in units 2 pi/alat)
               b(1) = (  1.000379  0.578507 -0.000136 )
               b(2) = (  0.000757  1.155706 -0.000363 )
               b(3) = (  0.000038 -0.000224  1.190031 )

     PseudoPot. # 1 for Zn read from file:
     ./GBRV_PBEsol/zn_pbesol_v1.uspp.F.UPF
     MD5 check sum: 7d8615e52efe7c1e2b1899de8658bae2
     Pseudo is Ultrasoft, Zval = 20.0
     Generated by new atomic code, or converted to UPF format
     Using radial grid of  943 points,  6 beta functions with:
                l(1) =   0
                l(2) =   0
                l(3) =   1
                l(4) =   1
                l(5) =   2
                l(6) =   2
     Q(r) pseudized with  8 coefficients,  rinner =    1.100   1.100   1.100
                                                       1.100   1.100

     PseudoPot. # 2 for O  read from file:
     ./GBRV_PBEsol/o_pbesol_v1.2.uspp.F.UPF
     MD5 check sum: 501638753501ef6325af9037351f7734
     Pseudo is Ultrasoft + core correction, Zval =  6.0
     Generated by new atomic code, or converted to UPF format
     Using radial grid of  737 points,  5 beta functions with:
                l(1) =   0
                l(2) =   0
                l(3) =   1
                l(4) =   1
                l(5) =   2
     Q(r) pseudized with  8 coefficients,  rinner =    0.900   0.900   0.900
                                                       0.900   0.900

     PseudoPot. # 3 for Mg read from file:
     ./GBRV_PBEsol/mg_pbesol_v1.4.uspp.F.UPF
     MD5 check sum: 4059f37963cf5867752dbf5ab2400678
     Pseudo is Ultrasoft, Zval = 10.0
     Generated by new atomic code, or converted to UPF format
     Using radial grid of  821 points,  7 beta functions with:
                l(1) =   0
                l(2) =   0
                l(3) =   0
                l(4) =   1
                l(5) =   1
                l(6) =   2
                l(7) =   2
     Q(r) pseudized with  8 coefficients,  rinner =    1.200   1.200   1.200
                                                       1.200   1.200

     atomic species   valence    mass     pseudopotential
        Zn            20.00    65.38000     Zn( 1.00)
        O              6.00    15.99900     O ( 1.00)
        Mg            10.00    24.30500     Mg( 1.00)

     No symmetry found

                                    s                        frac. trans.

      isym =  1     identity

 cryst.   s( 1) = (     1          0          0      )
                  (     0          1          0      )
                  (     0          0          1      )

 cart.    s( 1) = (  1.0000000  0.0000000 -0.0000000 )
                  ( -0.0000000  1.0000000  0.0000000 )
                  ( -0.0000000 -0.0000000  1.0000000 )

   Cartesian axes

     site n.     atom                  positions (alat units)
         1           Zn  tau(   1) = (   0.1668826   0.0969513   0.2132548  )
         2           Zn  tau(   2) = (   0.1666697   0.0966791   0.6324360  )
         3           Zn  tau(   3) = (   0.0000011   0.3845334   0.2107114  )
         4           Zn  tau(   4) = (  -0.0003264   0.3849169   0.6351829  )
         5           Zn  tau(   5) = (  -0.1669792   0.6742850   0.2126621  )
         6           Zn  tau(   6) = (  -0.1672146   0.6733614   0.6322388  )
         7           Zn  tau(   7) = (   0.4996437   0.0964828   0.2130137  )
         8           Zn  tau(   8) = (   0.5003594   0.0958232   0.6336673  )
         9           Zn  tau(   9) = (   0.3334953   0.3838255   0.2121261  )
        10           Mg  tau(  10) = (   0.3349156   0.3835136   0.6326701  )
        11           Mg  tau(  11) = (   0.1665972   0.6745887   0.2154213  )
        12           Zn  tau(  12) = (   0.1666144   0.6730229   0.6311984  )
        13           Zn  tau(  13) = (   0.8329472   0.0950899   0.2124819  )
        14           Mg  tau(  14) = (   0.8324161   0.0948129   0.6327925  )
        15           Zn  tau(  15) = (   0.6656103   0.3837055   0.2120754  )
        16           Mg  tau(  16) = (   0.6652205   0.3840964   0.6313253  )
        17           Mg  tau(  17) = (   0.4983915   0.6721801   0.2114355  )
        18           Mg  tau(  18) = (   0.4978097   0.6714044   0.6321175  )
        19           Zn  tau(  19) = (  -0.0001880   0.1936961   0.4223013  )
        20           Zn  tau(  20) = (   0.0006169   0.1930124   0.0024469  )
        21           Zn  tau(  21) = (  -0.1662094   0.4814788   0.4223234  )
        22           Mg  tau(  22) = (  -0.1661814   0.4814049   0.0017998  )
        23           Mg  tau(  23) = (  -0.3329903   0.7699234   0.4222161  )
        24           Mg  tau(  24) = (  -0.3319401   0.7708937   0.0033555  )
        25           Zn  tau(  25) = (   0.3337852   0.1926340   0.4233497  )
        26           Zn  tau(  26) = (   0.3333494   0.1920983   0.0009942  )
        27           Mg  tau(  27) = (   0.1657590   0.4798622   0.4244146  )
        28           Mg  tau(  28) = (   0.1665475   0.4801163   0.0033698  )
        29           Mg  tau(  29) = (  -0.0010562   0.7697563   0.4204837  )
        30           Zn  tau(  30) = (  -0.0002618   0.7685297   0.0014405  )
        31           Zn  tau(  31) = (   0.6658418   0.1918530   0.4244538  )
        32           Zn  tau(  32) = (   0.6661066   0.1922128   0.0016160  )
        33           Zn  tau(  33) = (   0.4990868   0.4800712   0.4237184  )
        34           Zn  tau(  34) = (   0.4999115   0.4793879   0.0017636  )
        35           Zn  tau(  35) = (   0.3322325   0.7681142   0.4224723  )
        36           Zn  tau(  36) = (   0.3319218   0.7682018   0.0031049  )
        37           O   tau(  37) = (   0.1666153   0.0967072   0.0029838  )
        38           O   tau(  38) = (   0.1667431   0.0966022   0.4222778  )
        39           O   tau(  39) = (   0.0001012   0.3850915   0.0024829  )
        40           O   tau(  40) = (  -0.0007539   0.3855234   0.4222999  )
        41           O   tau(  41) = (  -0.1667952   0.6737509   0.0018363  )
        42           O   tau(  42) = (  -0.1673381   0.6733889   0.4221927  )
        43           O   tau(  43) = (   0.4999054   0.0951950   0.0032013  )
        44           O   tau(  44) = (   0.4996256   0.0961795   0.4233262  )
        45           O   tau(  45) = (   0.3329041   0.3845822   0.0010307  )
        46           O   tau(  46) = (   0.3322309   0.3846748   0.4243916  )
        47           O   tau(  47) = (   0.1655616   0.6721150   0.0034058  )
        48           O   tau(  48) = (   0.1652097   0.6721983   0.4204598  )
        49           O   tau(  49) = (   0.8334193   0.0956558   0.0012870  )
        50           O   tau(  50) = (   0.8329101   0.0953195   0.4244301  )
        51           O   tau(  51) = (   0.6669344   0.3845877   0.0016523  )
        52           O   tau(  52) = (   0.6668112   0.3846300   0.4236952  )
        53           O   tau(  53) = (   0.5008458   0.6730506   0.0017998  )
        54           O   tau(  54) = (   0.5000902   0.6732529   0.4224487  )
        55           O   tau(  55) = (  -0.0005648   0.1922317   0.2132782  )
        56           O   tau(  56) = (  -0.0004655   0.1923101   0.6324596  )
        57           O   tau(  57) = (  -0.1671932   0.4812207   0.2107352  )
        58           O   tau(  58) = (  -0.1676357   0.4805655   0.6352060  )
        59           O   tau(  59) = (  -0.3349142   0.7691328   0.2126850  )
        60           O   tau(  60) = (  -0.3351650   0.7690833   0.6322624  )
        61           O   tau(  61) = (   0.3333980   0.1924369   0.2130374  )
        62           O   tau(  62) = (   0.3336506   0.1916215   0.6336903  )
        63           O   tau(  63) = (   0.1670623   0.4816337   0.2121499  )
        64           O   tau(  64) = (   0.1677496   0.4799943   0.6326936  )
        65           O   tau(  65) = (  -0.0001270   0.7695438   0.2154443  )
        66           O   tau(  66) = (  -0.0000473   0.7688548   0.6312219  )
        67           O   tau(  67) = (   0.6668561   0.1917077   0.2125054  )
        68           O   tau(  68) = (   0.6666247   0.1921478   0.6328162  )
        69           O   tau(  69) = (   0.4994108   0.4802342   0.2120991  )
        70           O   tau(  70) = (   0.4998420   0.4802034   0.6313487  )
        71           O   tau(  71) = (   0.3331356   0.7688797   0.2114589  )
        72           O   tau(  72) = (   0.3325506   0.7683676   0.6321411  )

   Crystallographic axes

     site n.     atom                  positions (cryst. coord.)
         1           Zn  tau(   1) = (  0.2230040  0.1120961  0.2537645  )
         2           Zn  tau(   2) = (  0.2225767  0.1116294  0.7526031  )
         3           Zn  tau(   3) = (  0.2224278  0.4443311  0.2506669  )
         4           Zn  tau(   4) = (  0.2222645  0.4446201  0.7558010  )
         5           Zn  tau(   5) = (  0.2230072  0.7790718  0.2529169  )
         6           Zn  tau(   6) = (  0.2221805  0.7778519  0.7522264  )
         7           Zn  tau(   7) = (  0.5556201  0.1118066  0.2534903  )
         8           Zn  tau(   8) = (  0.5558975  0.1108922  0.7540813  )
         9           Zn  tau(   9) = (  0.5556386  0.4437648  0.2523633  )
        10           Mg  tau(  10) = (  0.5568220  0.4432528  0.7528238  )
        11           Mg  tau(  11) = (  0.5568854  0.7796742  0.2562131  )
[...]
     atom   36 type  1   force =     0.00000000    0.00000000    0.00000000
     atom   37 type  2   force =     0.00000267   -0.00133361   -0.00000899
     atom   38 type  2   force =    -0.00006028   -0.00129722    0.00003118
     atom   39 type  2   force =    -0.00002568    0.00134930   -0.00001530
     atom   40 type  2   force =     0.00121066    0.00064539    0.00002149
     atom   41 type  2   force =    -0.00121101   -0.00072345   -0.00005183
     atom   42 type  2   force =     0.00000225    0.00136442   -0.00002306
     atom   43 type  2   force =    -0.00001962    0.00001640    0.00009747
     atom   44 type  2   force =    -0.00000766   -0.00139033    0.00006177
     atom   45 type  2   force =    -0.00125673    0.00069261   -0.00012091
     atom   46 type  2   force =    -0.00125372    0.00073726    0.00009871
     atom   47 type  2   force =     0.00002142   -0.00146705    0.00008613
     atom   48 type  2   force =    -0.00124306   -0.00070203   -0.00018953
     atom   49 type  2   force =     0.00000570    0.00000506   -0.00007556
     atom   50 type  2   force =     0.00005854    0.00004407    0.00015754
     atom   51 type  2   force =     0.00130526    0.00071499   -0.00012860
     atom   52 type  2   force =     0.00000445    0.00002004    0.00008391
     atom   53 type  2   force =     0.00125181    0.00076208   -0.00008706
     atom   54 type  2   force =     0.00130585    0.00072350    0.00002904
     atom   55 type  2   force =     0.00000084   -0.00002974    0.00001561
     atom   56 type  2   force =    -0.00120903   -0.00070217   -0.00004517
     atom   57 type  2   force =    -0.00002502   -0.00002473   -0.00009693
     atom   58 type  2   force =    -0.00123977   -0.00071199    0.00015179
     atom   59 type  2   force =    -0.00129383   -0.00069268    0.00003401
     atom   60 type  2   force =    -0.00128786   -0.00074984    0.00000550
     atom   61 type  2   force =    -0.00000352   -0.00006537    0.00000124
     atom   62 type  2   force =     0.00001040    0.00130748   -0.00006588
     atom   63 type  2   force =    -0.00001037    0.00147436    0.00002768
     atom   64 type  2   force =     0.00128533   -0.00076093    0.00004043
     atom   65 type  2   force =     0.00124132   -0.00067362    0.00008103
     atom   66 type  2   force =    -0.00002824    0.00000073   -0.00014901
     atom   67 type  2   force =     0.00000132   -0.00002257    0.00001875
     atom   68 type  2   force =     0.00119062    0.00066920    0.00000539
     atom   69 type  2   force =     0.00004148    0.00137227   -0.00001012
     atom   70 type  2   force =     0.00001684    0.00001322    0.00003962
     atom   71 type  2   force =     0.00002862   -0.00133728   -0.00000856
     atom   72 type  2   force =     0.00123191    0.00072870    0.00002614
     The Hubbard contrib.    to forces
     atom    1 type  1   force =     0.00000000    0.00000000    0.00000000
     atom    2 type  1   force =     0.00000000    0.00000000    0.00000000
     atom    3 type  1   force =     0.00000000    0.00000000    0.00000000
     atom    4 type  1   force =     0.00000000    0.00000000    0.00000000
     atom    5 type  1   force =     0.00000000    0.00000000    0.00000000
     atom    6 type  1   force =     0.00000000    0.00000000    0.00000000
     atom    7 type  1   force =     0.00000000    0.00000000    0.00000000
     atom    8 type  1   force =     0.00000000    0.00000000    0.00000000
     atom    9 type  1   force =     0.00000000    0.00000000    0.00000000
     atom   10 type  3   force =     0.00000000    0.00000000    0.00000000
     atom   11 type  3   force =     0.00000000    0.00000000    0.00000000
     atom   12 type  1   force =     0.00000000    0.00000000    0.00000000
     atom   13 type  1   force =     0.00000000    0.00000000    0.00000000
     atom   14 type  3   force =     0.00000000    0.00000000    0.00000000
     atom   15 type  1   force =     0.00000000    0.00000000    0.00000000
     atom   16 type  3   force =     0.00000000    0.00000000    0.00000000
     atom   17 type  3   force =     0.00000000    0.00000000    0.00000000
     atom   18 type  3   force =     0.00000000    0.00000000    0.00000000
     atom   19 type  1   force =     0.00000000    0.00000000    0.00000000
     atom   20 type  1   force =     0.00000000    0.00000000    0.00000000
     atom   21 type  1   force =     0.00000000    0.00000000    0.00000000
     atom   22 type  3   force =     0.00000000    0.00000000    0.00000000
     atom   23 type  3   force =     0.00000000    0.00000000    0.00000000
     atom   24 type  3   force =     0.00000000    0.00000000    0.00000000
     atom   25 type  1   force =     0.00000000    0.00000000    0.00000000
     atom   26 type  1   force =     0.00000000    0.00000000    0.00000000
     atom   27 type  3   force =     0.00000000    0.00000000    0.00000000
     atom   28 type  3   force =     0.00000000    0.00000000    0.00000000
     atom   29 type  3   force =     0.00000000    0.00000000    0.00000000
     atom   30 type  1   force =     0.00000000    0.00000000    0.00000000
     atom   31 type  1   force =     0.00000000    0.00000000    0.00000000
     atom   32 type  1   force =     0.00000000    0.00000000    0.00000000
     atom   33 type  1   force =     0.00000000    0.00000000    0.00000000
     atom   34 type  1   force =     0.00000000    0.00000000    0.00000000
     atom   35 type  1   force =     0.00000000    0.00000000    0.00000000
     atom   36 type  1   force =     0.00000000    0.00000000    0.00000000
     atom   37 type  2   force =     0.00000000    0.00000000    0.00000000
     atom   38 type  2   force =     0.00000000    0.00000000    0.00000000
     atom   39 type  2   force =     0.00000000    0.00000000    0.00000000
     atom   40 type  2   force =     0.00000000    0.00000000    0.00000000
     atom   41 type  2   force =     0.00000000    0.00000000    0.00000000
     atom   42 type  2   force =     0.00000000    0.00000000    0.00000000
     atom   43 type  2   force =     0.00000000    0.00000000    0.00000000
     atom   44 type  2   force =     0.00000000    0.00000000    0.00000000
     atom   45 type  2   force =     0.00000000    0.00000000    0.00000000
     atom   46 type  2   force =     0.00000000    0.00000000    0.00000000
     atom   47 type  2   force =     0.00000000    0.00000000    0.00000000
     atom   48 type  2   force =     0.00000000    0.00000000    0.00000000
     atom   49 type  2   force =     0.00000000    0.00000000    0.00000000
     atom   50 type  2   force =     0.00000000    0.00000000    0.00000000
     atom   51 type  2   force =     0.00000000    0.00000000    0.00000000
     atom   52 type  2   force =     0.00000000    0.00000000    0.00000000
     atom   53 type  2   force =     0.00000000    0.00000000    0.00000000
     atom   54 type  2   force =     0.00000000    0.00000000    0.00000000
     atom   55 type  2   force =     0.00000000    0.00000000    0.00000000
     atom   56 type  2   force =     0.00000000    0.00000000    0.00000000
     atom   57 type  2   force =     0.00000000    0.00000000    0.00000000
     atom   58 type  2   force =     0.00000000    0.00000000    0.00000000
     atom   59 type  2   force =     0.00000000    0.00000000    0.00000000
     atom   60 type  2   force =     0.00000000    0.00000000    0.00000000
     atom   61 type  2   force =     0.00000000    0.00000000    0.00000000
     atom   62 type  2   force =     0.00000000    0.00000000    0.00000000
     atom   63 type  2   force =     0.00000000    0.00000000    0.00000000
     atom   64 type  2   force =     0.00000000    0.00000000    0.00000000
     atom   65 type  2   force =     0.00000000    0.00000000    0.00000000
     atom   66 type  2   force =     0.00000000    0.00000000    0.00000000
     atom   67 type  2   force =     0.00000000    0.00000000    0.00000000
     atom   68 type  2   force =     0.00000000    0.00000000    0.00000000
     atom   69 type  2   force =     0.00000000    0.00000000    0.00000000
     atom   70 type  2   force =     0.00000000    0.00000000    0.00000000
     atom   71 type  2   force =     0.00000000    0.00000000    0.00000000
     atom   72 type  2   force =     0.00000000    0.00000000    0.00000000
     The SCF correction term to forces
     atom    1 type  1   force =    -0.00000379   -0.00007403    0.00000000
     atom    2 type  1   force =    -0.00001288   -0.00009032    0.00000000
     atom    3 type  1   force =     0.00002398    0.00005430    0.00000000
     atom    4 type  1   force =    -0.00000499    0.00003492    0.00000000
     atom    5 type  1   force =    -0.00003960   -0.00000172    0.00000000
     atom    6 type  1   force =    -0.00006443    0.00001362    0.00000000
     atom    7 type  1   force =    -0.00002424   -0.00003444    0.00000000
     atom    8 type  1   force =     0.00000472   -0.00004881    0.00000000
     atom    9 type  1   force =    -0.00001972    0.00004781    0.00000000
     atom   10 type  3   force =    -0.00003197    0.00000926    0.00000000
     atom   11 type  3   force =    -0.00001096   -0.00004592    0.00000000
     atom   12 type  1   force =    -0.00003568   -0.00002470    0.00000000
     atom   13 type  1   force =     0.00001969   -0.00002763    0.00000000
     atom   14 type  3   force =     0.00000588    0.00001029    0.00000000
     atom   15 type  1   force =    -0.00000493    0.00005847    0.00000000
     atom   16 type  3   force =     0.00003175    0.00001142    0.00000000
     atom   17 type  3   force =     0.00002611   -0.00001460    0.00000000
     atom   18 type  3   force =     0.00005612    0.00003091    0.00000000
     atom   19 type  1   force =    -0.00000955   -0.00001933    0.00000000
     atom   20 type  1   force =    -0.00002531   -0.00003738    0.00000000
     atom   21 type  1   force =     0.00000228    0.00001330    0.00000000
     atom   22 type  3   force =    -0.00002346    0.00001001    0.00000000
     atom   23 type  3   force =    -0.00001730   -0.00000135    0.00000000
     atom   24 type  3   force =    -0.00002740   -0.00002607    0.00000000
     atom   25 type  1   force =     0.00000933   -0.00003197    0.00000000
     atom   26 type  1   force =     0.00006062   -0.00005384    0.00000000
     atom   27 type  3   force =    -0.00000388   -0.00000902    0.00000000
     atom   28 type  3   force =     0.00000979    0.00001903    0.00000000
     atom   29 type  3   force =    -0.00002155    0.00001982    0.00000000
     atom   30 type  1   force =    -0.00000290    0.00007320    0.00000000
     atom   31 type  1   force =    -0.00000289   -0.00002638    0.00000000
     atom   32 type  1   force =    -0.00003853   -0.00004020    0.00000000
     atom   33 type  1   force =     0.00001395    0.00005053    0.00000000
     atom   34 type  1   force =     0.00003069    0.00005123    0.00000000
     atom   35 type  1   force =     0.00006150    0.00001591    0.00000000
     atom   36 type  1   force =     0.00004273    0.00000282    0.00000000
     atom   37 type  2   force =     0.00001524   -0.00001416    0.00000000
     atom   38 type  2   force =     0.00001102   -0.00001479    0.00000000
     atom   39 type  2   force =     0.00000738    0.00000837    0.00000000
     atom   40 type  2   force =     0.00000706    0.00000569    0.00000000
     atom   41 type  2   force =    -0.00000617    0.00001497    0.00000000
     atom   42 type  2   force =    -0.00000723    0.00001502    0.00000000
     atom   43 type  2   force =    -0.00000761   -0.00000768    0.00000000
     atom   44 type  2   force =    -0.00001041   -0.00000321    0.00000000
     atom   45 type  2   force =    -0.00000005   -0.00000279    0.00000000
     atom   46 type  2   force =    -0.00000466   -0.00000398    0.00000000
     atom   47 type  2   force =    -0.00000808   -0.00000121    0.00000000
     atom   48 type  2   force =    -0.00000798   -0.00000923    0.00000000
     atom   49 type  2   force =    -0.00000874   -0.00000555    0.00000000
     atom   50 type  2   force =    -0.00000074   -0.00000059    0.00000000
     atom   51 type  2   force =    -0.00000556    0.00000160    0.00000000
     atom   52 type  2   force =    -0.00000239    0.00000240    0.00000000
     atom   53 type  2   force =     0.00001849    0.00000821    0.00000000
     atom   54 type  2   force =     0.00001804    0.00000597    0.00000000
     atom   55 type  2   force =     0.00000130    0.00000377    0.00000000
     atom   56 type  2   force =    -0.00000326    0.00000063    0.00000000
     atom   57 type  2   force =    -0.00000779   -0.00000684    0.00000000
     atom   58 type  2   force =    -0.00000499    0.00000064    0.00000000
     atom   59 type  2   force =    -0.00000611   -0.00000656    0.00000000
     atom   60 type  2   force =    -0.00000333   -0.00000834    0.00000000
     atom   61 type  2   force =     0.00000486    0.00000724    0.00000000
     atom   62 type  2   force =     0.00000763   -0.00000266    0.00000000
     atom   63 type  2   force =     0.00000746    0.00000267    0.00000000
     atom   64 type  2   force =     0.00000443   -0.00000113    0.00000000
     atom   65 type  2   force =    -0.00000103    0.00000236    0.00000000
     atom   66 type  2   force =    -0.00000182    0.00001064    0.00000000
     atom   67 type  2   force =    -0.00000573    0.00000853    0.00000000
     atom   68 type  2   force =    -0.00000983   -0.00000158    0.00000000
     atom   69 type  2   force =     0.00000041    0.00000027    0.00000000
     atom   70 type  2   force =     0.00000146    0.00000481    0.00000000
     atom   71 type  2   force =     0.00000694   -0.00000809    0.00000000
     atom   72 type  2   force =     0.00000408   -0.00000433    0.00000000

     Total force =     0.000149     Total SCF correction =     0.000295
     SCF correction compared to forces is large: reduce conv_thr to get better values

     Computing stress (Cartesian axis) and pressure

          total   stress  (Ry/bohr**3)                   (kbar)     P=    1.48
   0.00001162   0.00000005  -0.00000000          1.71      0.01     -0.00
   0.00000005   0.00001158  -0.00000000          0.01      1.70     -0.00
  -0.00000000  -0.00000000   0.00000697         -0.00     -0.00      1.02

     kinetic stress (kbar)  30392.76     -0.17     -0.00
                               -0.17  30394.24     -0.15
                               -0.00     -0.15  30558.77

     local   stress (kbar)  -4682.95    553.31   -360.88
                              553.31   3098.51  -1219.69
                             -360.88  -1219.69 -27334.57

     nonloc. stress (kbar)    644.68     -0.31     -0.04
                               -0.31    642.86      0.13
                               -0.04      0.13    592.64

     hartree stress (kbar)  51224.76   -265.07    177.27
                             -265.07  47404.25    594.04
                              177.27    594.04  61627.68

     exc-cor stress (kbar) -12298.13     -0.03     -0.00
                               -0.03 -12298.17      0.00
                               -0.00      0.00 -12298.10

     corecor stress (kbar)   -261.99      0.00     -0.00
                                0.00   -262.00      0.00
                               -0.00      0.00   -262.28

     ewald   stress (kbar) -65017.41   -287.72    183.66
                             -287.72 -68977.99    625.66
                              183.66    625.66 -52883.12

     hubbard stress (kbar)      0.00      0.00      0.00
                                0.00      0.00      0.00
                                0.00      0.00      0.00

     london  stress (kbar)      0.00      0.00      0.00
                                0.00      0.00      0.00
                                0.00      0.00      0.00

     DFT-D3  stress (kbar)      0.00      0.00      0.00
                                0.00      0.00      0.00
                                0.00      0.00      0.00

     XDM     stress (kbar)      0.00      0.00      0.00
                                0.00      0.00      0.00
                                0.00      0.00      0.00

     dft-nl  stress (kbar)      0.00      0.00      0.00
                                0.00      0.00      0.00
                                0.00      0.00      0.00

     TS-vdW  stress (kbar)      0.00      0.00      0.00
                                0.00      0.00      0.00
                                0.00      0.00      0.00

     Writing output data file ZnO.save/

     General routines

     Parallel routines

   This run was terminated on:  21:59:24   8Nov2021

   JOB DONE.