     Program PWSCF v.6.4.1 starts on 16Jun2022 at 14:58:27

     K-points division:     npool     =       4
     R & G space division:  proc/nbgrp/npool/nimage =      16
     Waiting for input...
     Reading input from standard input

     Current dimensions of program PWSCF are:
     Max number of different atomic species (ntypx) = 10
     Max number of k-points (npk) =  40000
     Max angular momentum in pseudopotentials (lmaxx) =  3

     bravais-lattice index     =            0
     lattice parameter (alat)  =       6.0289  a.u.
     unit-cell volume          =     317.6808 (a.u.)^3
     number of atoms/cell      =            4
     number of atomic types    =            2
     number of electrons       =        52.00
     number of Kohn-Sham states=           26
     kinetic-energy cutoff     =      80.0000  Ry
     charge density cutoff     =     600.0000  Ry
     convergence threshold     =      1.0E-06
     mixing beta               =       0.5000
     number of iterations used =            8  plain     mixing
     Exchange-correlation      = SLA  PW   PSX  PSC ( 1  4 10  8 0 0)
     nstep                     =          200

     celldm(1)=   6.028923  celldm(2)=   0.000000  celldm(3)=   0.000000
     celldm(4)=   0.000000  celldm(5)=   0.000000  celldm(6)=   0.000000

     crystal axes: (cart. coord. in units of alat)
               a(1) = (   1.000000  -0.000000   0.000000 )
               a(2) = (  -0.500000   0.866025  -0.000000 )
               a(3) = (   0.000000  -0.000000   1.673945 )

     reciprocal axes: (cart. coord. in units 2 pi/alat)
               b(1) = (  1.000000  0.577350  0.000000 )
               b(2) = (  0.000000  1.154701  0.000000 )
               b(3) = ( -0.000000  0.000000  0.597391 )

     PseudoPot. # 1 for Zn read from file:
     ./GBRV_PBEsol/zn_pbesol_v1.uspp.F.UPF
     MD5 check sum: 7d8615e52efe7c1e2b1899de8658bae2
     Pseudo is Ultrasoft, Zval = 20.0
     Generated by new atomic code, or converted to UPF format
     Using radial grid of  943 points,  6 beta functions with:
                l(1) =   0
                l(2) =   0
                l(3) =   1
                l(4) =   1
                l(5) =   2
                l(6) =   2
     Q(r) pseudized with  8 coefficients,  rinner =    1.100   1.100   1.100
                                                       1.100   1.100

     PseudoPot. # 2 for O  read from file:
     ./GBRV_PBEsol/o_pbesol_v1.2.uspp.F.UPF
     MD5 check sum: 501638753501ef6325af9037351f7734
     Pseudo is Ultrasoft + core correction, Zval =  6.0
     Generated by new atomic code, or converted to UPF format
     Using radial grid of  737 points,  5 beta functions with:
                l(1) =   0
                l(2) =   0
                l(3) =   1
                l(4) =   1
                l(5) =   2
     Q(r) pseudized with  8 coefficients,  rinner =    0.900   0.900   0.900
                                                       0.900   0.900

     atomic species   valence    mass     pseudopotential
        Zn            20.00    65.38000     Zn( 1.00)
        O              6.00    15.99900     O ( 1.00)

     No symmetry found

                                    s                        frac. trans.

      isym =  1     identity

 cryst.   s( 1) = (     1          0          0      )
                  (     0          1          0      )
                  (     0          0          1      )

 cart.    s( 1) = (  1.0000000  0.0000000  0.0000000 )
                  (  0.0000000  1.0000000 -0.0000000 )
                  ( -0.0000000 -0.0000000  1.0000000 )

   Cartesian axes

     site n.     atom                  positions (alat units)
         1           O   tau(   1) = (   0.5000003   0.2886754   0.0122966  )
         2           O   tau(   2) = (   0.0000003   0.5773494   0.8492689  )
         3           Zn  tau(   3) = (   0.5000001   0.2886748   1.0819614  )
         4           Zn  tau(   4) = (   0.0000000   0.5773511   1.9189339  )

   Crystallographic axes

     site n.     atom                  positions (cryst. coord.)
         1           O   tau(   1) = (  0.6666670  0.3333337  0.0073459  )
         2           O   tau(   2) = (  0.3333329  0.6666657  0.5073458  )
         3           Zn  tau(   3) = (  0.6666664  0.3333329  0.6463542  )
         4           Zn  tau(   4) = (  0.3333337  0.6666677  1.1463542  )

     number of k points=   260
                       cart. coord. in units 2pi/alat
        k(    1) = (   0.0000000   0.0000000   0.0000000), wk =   0.0039062
        k(    2) = (  -0.0000000   0.0000000   0.0746739), wk =   0.0078125
        k(    3) = (  -0.0000000   0.0000000   0.1493478), wk =   0.0078125
        k(    4) = (  -0.0000000   0.0000000   0.2240217), wk =   0.0078125
        k(    5) = (   0.0000000  -0.0000000  -0.2986956), wk =   0.0039062
        k(    6) = (   0.0000000   0.1443376   0.0000000), wk =   0.0078125
        k(    7) = (   0.0000000   0.1443376   0.0746739), wk =   0.0078125
        k(    8) = (   0.0000000   0.1443376   0.1493478), wk =   0.0078125
        k(    9) = (   0.0000000   0.1443376   0.2240217), wk =   0.0078125
        k(   10) = (   0.0000000   0.1443376  -0.2986956), wk =   0.0078125
        k(   11) = (   0.0000000   0.1443376  -0.2240217), wk =   0.0078125
        k(   12) = (   0.0000000   0.1443376  -0.1493478), wk =   0.0078125
        k(   13) = (   0.0000000   0.1443376  -0.0746739), wk =   0.0078125
        k(   14) = (   0.0000000   0.2886752   0.0000000), wk =   0.0078125
        k(   15) = (   0.0000000   0.2886752   0.0746739), wk =   0.0078125
        k(   16) = (   0.0000000   0.2886752   0.1493478), wk =   0.0078125
        k(   17) = (   0.0000000   0.2886752   0.2240217), wk =   0.0078125
        k(   18) = (   0.0000000   0.2886752  -0.2986956), wk =   0.0078125
        k(   19) = (   0.0000000   0.2886752  -0.2240217), wk =   0.0078125
        k(   20) = (   0.0000000   0.2886752  -0.1493478), wk =   0.0078125
        k(   21) = (   0.0000000   0.2886752  -0.0746739), wk =   0.0078125
        k(   22) = (   0.0000000   0.4330127   0.0000000), wk =   0.0078125
        k(   23) = (   0.0000000   0.4330127   0.0746739), wk =   0.0078125
        k(   24) = (   0.0000000   0.4330127   0.1493478), wk =   0.0078125
        k(   25) = (   0.0000000   0.4330127   0.2240217), wk =   0.0078125
        k(   26) = (   0.0000000   0.4330127  -0.2986956), wk =   0.0078125
        k(   27) = (   0.0000000   0.4330127  -0.2240217), wk =   0.0078125
        k(   28) = (   0.0000000   0.4330127  -0.1493478), wk =   0.0078125
        k(   29) = (   0.0000000   0.4330127  -0.0746739), wk =   0.0078125
        k(   30) = (  -0.0000000  -0.5773503  -0.0000000), wk =   0.0039062
        k(   31) = (  -0.0000000  -0.5773503   0.0746739), wk =   0.0078125
        k(   32) = (  -0.0000000  -0.5773503   0.1493478), wk =   0.0078125
        k(   33) = (  -0.0000000  -0.5773503   0.2240217), wk =   0.0078125
        k(   34) = (  -0.0000000  -0.5773503  -0.2986956), wk =   0.0039062
        k(   35) = (   0.1250000   0.0721687   0.0000000), wk =   0.0078125
        k(   36) = (   0.1250000   0.0721687   0.0746739), wk =   0.0078125
        k(   37) = (   0.1250000   0.0721687   0.1493478), wk =   0.0078125
        k(   38) = (   0.1250000   0.0721687   0.2240217), wk =   0.0078125
        k(   39) = (   0.1250000   0.0721687  -0.2986956), wk =   0.0078125
        k(   40) = (   0.1250000   0.0721687  -0.2240217), wk =   0.0078125
        k(   41) = (   0.1250000   0.0721687  -0.1493478), wk =   0.0078125
        k(   42) = (   0.1250000   0.0721687  -0.0746739), wk =   0.0078125
        k(   43) = (   0.1250000   0.2165063   0.0000000), wk =   0.0078125
        k(   44) = (   0.1250000   0.2165063   0.0746739), wk =   0.0078125
        k(   45) = (   0.1250000   0.2165063   0.1493478), wk =   0.0078125
        k(   46) = (   0.1250000   0.2165063   0.2240217), wk =   0.0078125
        k(   47) = (   0.1250000   0.2165063  -0.2986956), wk =   0.0078125
        k(   48) = (   0.1250000   0.2165063  -0.2240217), wk =   0.0078125
        k(   49) = (   0.1250000   0.2165063  -0.1493478), wk =   0.0078125
        k(   50) = (   0.1250000   0.2165063  -0.0746739), wk =   0.0078125
        k(   51) = (   0.1250000   0.3608439   0.0000000), wk =   0.0078125
        k(   52) = (   0.1250000   0.3608439   0.0746739), wk =   0.0078125
        k(   53) = (   0.1250000   0.3608439   0.1493478), wk =   0.0078125
        k(   54) = (   0.1250000   0.3608439   0.2240217), wk =   0.0078125
        k(   55) = (   0.1250000   0.3608439  -0.2986956), wk =   0.0078125
        k(   56) = (   0.1250000   0.3608439  -0.2240217), wk =   0.0078125
        k(   57) = (   0.1250000   0.3608439  -0.1493478), wk =   0.0078125
        k(   58) = (   0.1250000   0.3608439  -0.0746739), wk =   0.0078125
        k(   59) = (   0.1250000   0.5051815   0.0000000), wk =   0.0078125
        k(   60) = (   0.1250000   0.5051815   0.0746739), wk =   0.0078125
[...]
        k(  246) = (  -0.5000000   0.0000002  -0.1493478), wk =   0.0078125
        k(  247) = (  -0.5000000   0.0000002  -0.0746739), wk =   0.0078125
        k(  248) = (  -0.5000000   0.1443378   0.0000000), wk =   0.0078125
        k(  249) = (  -0.5000000   0.1443378   0.0746739), wk =   0.0078125
        k(  250) = (  -0.5000000   0.1443378   0.1493478), wk =   0.0078125
        k(  251) = (  -0.5000000   0.1443378   0.2240217), wk =   0.0078125
        k(  252) = (  -0.5000000   0.1443378  -0.2986956), wk =   0.0078125
        k(  253) = (  -0.5000000   0.1443378  -0.2240217), wk =   0.0078125
        k(  254) = (  -0.5000000   0.1443378  -0.1493478), wk =   0.0078125
        k(  255) = (  -0.5000000   0.1443378  -0.0746739), wk =   0.0078125
        k(  256) = (  -0.5000000  -0.8660253  -0.0000000), wk =   0.0039062
        k(  257) = (  -0.5000000  -0.8660253   0.0746739), wk =   0.0078125
        k(  258) = (  -0.5000000  -0.8660253   0.1493478), wk =   0.0078125
        k(  259) = (  -0.5000000  -0.8660253   0.2240217), wk =   0.0078125
        k(  260) = (  -0.5000000  -0.8660253  -0.2986956), wk =   0.0039062

                       cryst. coord.
        k(    1) = (   0.0000000   0.0000000   0.0000000), wk =   0.0039062
        k(    2) = (   0.0000000  -0.0000000   0.1250000), wk =   0.0078125
        k(    3) = (   0.0000000  -0.0000000   0.2500000), wk =   0.0078125
        k(    4) = (  -0.0000000  -0.0000000   0.3750000), wk =   0.0078125
        k(    5) = (  -0.0000000   0.0000000  -0.5000000), wk =   0.0039062
        k(    6) = (   0.0000000   0.1250000   0.0000000), wk =   0.0078125
        k(    7) = (   0.0000000   0.1250000   0.1250000), wk =   0.0078125
        k(    8) = (   0.0000000   0.1250000   0.2500000), wk =   0.0078125
        k(    9) = (   0.0000000   0.1250000   0.3750000), wk =   0.0078125
        k(   10) = (   0.0000000   0.1250000  -0.5000000), wk =   0.0078125
        k(   11) = (  -0.0000000   0.1250000  -0.3750000), wk =   0.0078125
        k(   12) = (   0.0000000   0.1250000  -0.2500000), wk =   0.0078125
        k(   13) = (  -0.0000000   0.1250000  -0.1250000), wk =   0.0078125
[...]
        k(   24) = (   0.0000001   0.4330268   0.1490358), wk =   0.0078125
        k(   25) = (   0.0000001   0.4330268   0.2235537), wk =   0.0078125
        k(   26) = (   0.0000001   0.4330268  -0.2980716), wk =   0.0078125
        k(   27) = (   0.0000001   0.4330268  -0.2235537), wk =   0.0078125
        k(   28) = (   0.0000001   0.4330268  -0.1490358), wk =   0.0078125
        k(   29) = (   0.0000001   0.4330268  -0.0745179), wk =   0.0078125
        k(   30) = (  -0.0000001  -0.5773690  -0.0000000), wk =   0.0039062
        k(   31) = (  -0.0000001  -0.5773690   0.0745179), wk =   0.0078125
        k(   32) = (  -0.0000001  -0.5773690   0.1490358), wk =   0.0078125
        k(   33) = (  -0.0000001  -0.5773690   0.2235537), wk =   0.0078125
        k(   34) = (  -0.0000001  -0.5773691  -0.2980716), wk =   0.0039062
        k(   35) = (   0.1250041   0.0721711   0.0000000), wk =   0.0078125
        k(   36) = (   0.1250041   0.0721711   0.0745179), wk =   0.0078125
        k(   37) = (   0.1250041   0.0721711   0.1490358), wk =   0.0078125
        k(   38) = (   0.1250041   0.0721711   0.2235537), wk =   0.0078125
        k(   39) = (   0.1250041   0.0721711  -0.2980716), wk =   0.0078125
        k(   40) = (   0.1250041   0.0721711  -0.2235537), wk =   0.0078125
        k(   41) = (   0.1250041   0.0721711  -0.1490358), wk =   0.0078125
        k(   42) = (   0.1250041   0.0721711  -0.0745179), wk =   0.0078125
        k(   43) = (   0.1250041   0.2165134   0.0000000), wk =   0.0078125
        k(   44) = (   0.1250041   0.2165134   0.0745179), wk =   0.0078125
        k(   45) = (   0.1250041   0.2165134   0.1490358), wk =   0.0078125
        k(   46) = (   0.1250041   0.2165134   0.2235537), wk =   0.0078125
        k(   47) = (   0.1250041   0.2165133  -0.2980716), wk =   0.0078125
        k(   48) = (   0.1250041   0.2165133  -0.2235537), wk =   0.0078125
        k(   49) = (   0.1250041   0.2165134  -0.1490358), wk =   0.0078125
        k(   50) = (   0.1250041   0.2165134  -0.0745179), wk =   0.0078125
        k(   51) = (   0.1250041   0.3608556   0.0000000), wk =   0.0078125
        k(   52) = (   0.1250041   0.3608556   0.0745179), wk =   0.0078125
        k(   53) = (   0.1250042   0.3608556   0.1490358), wk =   0.0078125
        k(   54) = (   0.1250042   0.3608556   0.2235537), wk =   0.0078125
        k(   55) = (   0.1250041   0.3608556  -0.2980716), wk =   0.0078125
        k(   56) = (   0.1250041   0.3608556  -0.2235537), wk =   0.0078125
        k(   57) = (   0.1250041   0.3608556  -0.1490358), wk =   0.0078125
        k(   58) = (   0.1250041   0.3608556  -0.0745179), wk =   0.0078125
        k(   59) = (   0.1250042   0.5051979   0.0000000), wk =   0.0078125
        k(   60) = (   0.1250042   0.5051979   0.0745179), wk =   0.0078125
[...]
        k(  246) = (  -0.5000163   0.0000001  -0.1490358), wk =   0.0078125
        k(  247) = (  -0.5000163   0.0000001  -0.0745179), wk =   0.0078125
        k(  248) = (  -0.5000162   0.1443424  -0.0000000), wk =   0.0078125
        k(  249) = (  -0.5000162   0.1443424   0.0745179), wk =   0.0078125
        k(  250) = (  -0.5000162   0.1443424   0.1490358), wk =   0.0078125
        k(  251) = (  -0.5000162   0.1443424   0.2235537), wk =   0.0078125
        k(  252) = (  -0.5000163   0.1443423  -0.2980716), wk =   0.0078125
        k(  253) = (  -0.5000163   0.1443423  -0.2235537), wk =   0.0078125
        k(  254) = (  -0.5000162   0.1443424  -0.1490358), wk =   0.0078125
        k(  255) = (  -0.5000162   0.1443424  -0.0745179), wk =   0.0078125
        k(  256) = (  -0.5000164  -0.8660535  -0.0000001), wk =   0.0039062
        k(  257) = (  -0.5000164  -0.8660534   0.0745178), wk =   0.0078125
        k(  258) = (  -0.5000164  -0.8660534   0.1490357), wk =   0.0078125
        k(  259) = (  -0.5000164  -0.8660534   0.2235536), wk =   0.0078125
        k(  260) = (  -0.5000165  -0.8660535  -0.2980717), wk =   0.0039062

                       cryst. coord.
        k(    1) = (   0.0000000   0.0000000   0.0000000), wk =   0.0039062
        k(    2) = (   0.0000000   0.0000000   0.1250000), wk =   0.0078125
        k(    3) = (   0.0000000   0.0000000   0.2500000), wk =   0.0078125
        k(    4) = (   0.0000000  -0.0000000   0.3750000), wk =   0.0078125
        k(    5) = (  -0.0000000  -0.0000000  -0.5000000), wk =   0.0039062
        k(    6) = (  -0.0000000   0.1250000   0.0000000), wk =   0.0078125
        k(    7) = (   0.0000000   0.1250000   0.1250000), wk =   0.0078125
        k(    8) = (   0.0000000   0.1250000   0.2500000), wk =   0.0078125
        k(    9) = (   0.0000000   0.1250000   0.3750000), wk =   0.0078125
        k(   10) = (  -0.0000000   0.1250000  -0.5000000), wk =   0.0078125
        k(   11) = (  -0.0000000   0.1250000  -0.3750000), wk =   0.0078125
        k(   12) = (  -0.0000000   0.1250000  -0.2500000), wk =   0.0078125
        k(   13) = (  -0.0000000   0.1250000  -0.1250000), wk =   0.0078125
        k(   14) = (  -0.0000000   0.2500000   0.0000000), wk =   0.0078125
        k(   15) = (  -0.0000000   0.2500000   0.1250000), wk =   0.0078125
        k(   16) = (   0.0000000   0.2500000   0.2500000), wk =   0.0078125
        k(   17) = (  -0.0000000   0.2500000   0.3750000), wk =   0.0078125
        k(   18) = (  -0.0000000   0.2500000  -0.5000000), wk =   0.0078125
        k(   19) = (  -0.0000000   0.2500000  -0.3750000), wk =   0.0078125
        k(   20) = (  -0.0000000   0.2500000  -0.2500000), wk =   0.0078125
        k(   21) = (   0.0000000   0.2500000  -0.1250000), wk =   0.0078125
        k(   22) = (  -0.0000000   0.3750000  -0.0000000), wk =   0.0078125
        k(   23) = (  -0.0000000   0.3750000   0.1250000), wk =   0.0078125
        k(   24) = (   0.0000000   0.3750000   0.2500000), wk =   0.0078125
        k(   25) = (  -0.0000000   0.3750000   0.3750000), wk =   0.0078125
        k(   26) = (  -0.0000000   0.3750000  -0.5000000), wk =   0.0078125
        k(   27) = (  -0.0000000   0.3750000  -0.3750000), wk =   0.0078125
        k(   28) = (  -0.0000000   0.3750000  -0.2500000), wk =   0.0078125
        k(   29) = (  -0.0000000   0.3750000  -0.1250000), wk =   0.0078125
        k(   30) = (   0.0000000  -0.5000000  -0.0000000), wk =   0.0039062
        k(   31) = (   0.0000000  -0.5000000   0.1250000), wk =   0.0078125
        k(   32) = (  -0.0000000  -0.5000000   0.2500000), wk =   0.0078125
        k(   33) = (   0.0000000  -0.5000000   0.3750000), wk =   0.0078125
        k(   34) = (  -0.0000000  -0.5000000  -0.5000000), wk =   0.0039062
        k(   35) = (   0.1250000   0.0000000  -0.0000000), wk =   0.0078125
        k(   36) = (   0.1250000   0.0000000   0.1250000), wk =   0.0078125
        k(   37) = (   0.1250000   0.0000000   0.2500000), wk =   0.0078125
        k(   38) = (   0.1250000   0.0000000   0.3750000), wk =   0.0078125
        k(   39) = (   0.1250000   0.0000000  -0.5000000), wk =   0.0078125
        k(   40) = (   0.1250000   0.0000000  -0.3750000), wk =   0.0078125
        k(   41) = (   0.1250000   0.0000000  -0.2500000), wk =   0.0078125
        k(   42) = (   0.1250000   0.0000000  -0.1250000), wk =   0.0078125
        k(   43) = (   0.1250000   0.1250000  -0.0000000), wk =   0.0078125
        k(   44) = (   0.1250000   0.1250000   0.1250000), wk =   0.0078125
        k(   45) = (   0.1250000   0.1250000   0.2500000), wk =   0.0078125
        k(   46) = (   0.1250000   0.1250000   0.3750000), wk =   0.0078125
        k(   47) = (   0.1250000   0.1250000  -0.5000000), wk =   0.0078125
        k(   48) = (   0.1250000   0.1250000  -0.3750000), wk =   0.0078125
        k(   49) = (   0.1250000   0.1250000  -0.2500000), wk =   0.0078125
        k(   50) = (   0.1250000   0.1250000  -0.1250000), wk =   0.0078125
        k(   51) = (   0.1250000   0.2500000   0.0000000), wk =   0.0078125
        k(   52) = (   0.1250000   0.2500000   0.1250000), wk =   0.0078125
        k(   53) = (   0.1250000   0.2500000   0.2500000), wk =   0.0078125
        k(   54) = (   0.1250000   0.2500000   0.3750000), wk =   0.0078125
        k(   55) = (   0.1250000   0.2500000  -0.5000000), wk =   0.0078125
        k(   56) = (   0.1250000   0.2500000  -0.3750000), wk =   0.0078125
        k(   57) = (   0.1250000   0.2500000  -0.2500000), wk =   0.0078125
        k(   58) = (   0.1250000   0.2500000  -0.1250000), wk =   0.0078125
        k(   59) = (   0.1250000   0.3750000  -0.0000000), wk =   0.0078125
        k(   60) = (   0.1250000   0.3750000   0.1250000), wk =   0.0078125
[...]
        k(  246) = (  -0.5000000   0.2500000  -0.2500000), wk =   0.0078125
        k(  247) = (  -0.5000000   0.2500000  -0.1250000), wk =   0.0078125
        k(  248) = (  -0.5000000   0.3750000  -0.0000000), wk =   0.0078125
        k(  249) = (  -0.5000000   0.3750000   0.1250000), wk =   0.0078125
        k(  250) = (  -0.5000000   0.3750000   0.2500000), wk =   0.0078125
        k(  251) = (  -0.5000000   0.3750000   0.3750000), wk =   0.0078125
        k(  252) = (  -0.5000000   0.3750000  -0.5000000), wk =   0.0078125
        k(  253) = (  -0.5000000   0.3750000  -0.3750000), wk =   0.0078125
        k(  254) = (  -0.5000000   0.3750000  -0.2500000), wk =   0.0078125
        k(  255) = (  -0.5000000   0.3750000  -0.1250000), wk =   0.0078125
        k(  256) = (  -0.5000000  -0.5000000   0.0000000), wk =   0.0039062
        k(  257) = (  -0.5000000  -0.5000000   0.1250000), wk =   0.0078125
        k(  258) = (  -0.5000000  -0.5000000   0.2500000), wk =   0.0078125
        k(  259) = (  -0.5000000  -0.5000000   0.3750000), wk =   0.0078125
        k(  260) = (  -0.5000000  -0.5000000  -0.5000000), wk =   0.0039062

     Check: negative core charge=   -0.000003

     Initial potential from superposition of free atoms

     starting charge   51.99974, renormalised to   52.00000
     Starting wfcs are   34 randomized atomic wfcs

     Self-consistent Calculation

[...]

     total energy              =    -987.07806311 Ry
     Harris-Foulkes estimate   =    -987.07806310 Ry
     estimated scf accuracy    <       0.00000001 Ry

     iteration #  8     ecut=    80.00 Ry     beta= 0.50
     Davidson diagonalization with overlap
     ethr =  2.17E-11,  avg # of iterations =  2.9

     End of self-consistent calculation

[...]

          k = 0.3750 0.0722-0.0745 (  3852 PWs)   bands (ev):

[...]

          k =-0.5000-0.8661-0.2981 (  3832 PWs)   bands (ev):

  -114.3306-114.3306 -68.6972 -68.6972 -68.6952 -68.6952 -68.6750 -68.6750
    -8.3889  -8.3889   2.5902   2.5902   3.5013   3.5013   3.5335   3.5335
     4.4462   4.4462   4.5096   4.5096   5.0473   5.0473   7.2287   7.2287
     7.3941   7.3942

     occupation numbers
     1.0000   1.0000   1.0000   1.0000   1.0000   1.0000   1.0000   1.0000
     1.0000   1.0000   1.0000   1.0000   1.0000   1.0000   1.0000   1.0000
     1.0000   1.0000   1.0000   1.0000   1.0000   1.0000   1.0000   1.0000
     1.0000   1.0000

     highest occupied level (ev):     8.8147

!    total energy              =    -987.07806312 Ry
     Harris-Foulkes estimate   =    -987.07806311 Ry
     estimated scf accuracy    <          2.6E-09 Ry

     The total energy is the sum of the following terms:

     one-electron contribution =    -802.36250549 Ry
     hartree contribution      =     422.60837273 Ry
     xc contribution           =     -98.07398438 Ry
     ewald contribution        =    -509.24994597 Ry

     convergence has been achieved in   8 iterations

     Forces acting on atoms (cartesian axes, Ry/au):

     atom    1 type  2   force =    -0.00000026    0.00000035    0.01369756
     atom    2 type  2   force =    -0.00000007    0.00000045    0.01369671
     atom    3 type  1   force =     0.00000011   -0.00000031   -0.01371026
     atom    4 type  1   force =     0.00000022   -0.00000049   -0.01368401
     The non-local contrib.  to forces
     atom    1 type  2   force =     0.00000119   -0.00000277    0.00240918
     atom    2 type  2   force =     0.00000033    0.00000087    0.00241023
     atom    3 type  1   force =     0.00000064   -0.00000393    0.00113415
     atom    4 type  1   force =     0.00000238   -0.00000062    0.00114360
     The ionic contribution  to forces
     atom    1 type  2   force =    -0.00001722    0.00003242   -0.21179982
     atom    2 type  2   force =    -0.00000344   -0.00000333   -0.21179126
     atom    3 type  1   force =     0.00000356   -0.00002181    0.21179660
     atom    4 type  1   force =     0.00001710   -0.00000728    0.21179448
     The local contribution  to forces
     atom    1 type  2   force =     0.00001578   -0.00002933    0.22315910
     atom    2 type  2   force =     0.00000303    0.00000291    0.22315436
     atom    3 type  1   force =    -0.00000411    0.00002543   -0.22667141
     atom    4 type  1   force =    -0.00001924    0.00000743   -0.22671189
     The core correction contribution to forces
     atom    1 type  2   force =    -0.00000001    0.00000002   -0.00005004
     atom    2 type  2   force =    -0.00000001   -0.00000001   -0.00005006
     atom    3 type  1   force =     0.00000000    0.00000000    0.00000000
     atom    4 type  1   force =     0.00000000    0.00000000    0.00000000
     The Hubbard contrib.    to forces
     atom    1 type  2   force =     0.00000000    0.00000000    0.00000000
     atom    2 type  2   force =     0.00000000    0.00000000    0.00000000
     atom    3 type  1   force =     0.00000000    0.00000000    0.00000000
     atom    4 type  1   force =     0.00000000    0.00000000    0.00000000
     The SCF correction term to forces
     atom    1 type  2   force =     0.00000000    0.00000000    0.00000000
     atom    2 type  2   force =     0.00000000    0.00000000    0.00000000
     atom    3 type  1   force =     0.00000000    0.00000000    0.00000000
     atom    4 type  1   force =     0.00000000    0.00000000    0.00000000

     Total force =     0.000000     Total SCF correction =     0.000000

     Computing stress (Cartesian axis) and pressure

          total   stress  (Ry/bohr**3)                   (kbar)     P=    0.97
   0.00000650   0.00000000   0.00000001          0.96      0.00      0.00
   0.00000000   0.00000649   0.00000001          0.00      0.96      0.00
   0.00000001   0.00000001   0.00000685          0.00      0.00      1.01

     kinetic stress (kbar)  33996.77     -0.00     -0.00
                               -0.00  33996.77      0.00
                               -0.00      0.00  33839.91

     local   stress (kbar)  -1597.20     -0.03     -0.03
                               -0.03  -1597.29      0.10
                               -0.03      0.10 -10276.22

     nonloc. stress (kbar)  -1703.38     -0.00     -0.00
                               -0.00  -1703.38     -0.00
                               -0.00     -0.00  -1640.71

     hartree stress (kbar)  63953.40      0.01      0.01
                                0.01  63953.44     -0.04
                                0.01     -0.04  67389.77

     exc-cor stress (kbar) -14176.17      0.00     -0.00
                                0.00 -14176.17     -0.00
                               -0.00     -0.00 -14172.52

     corecor stress (kbar)   -249.63     -0.00     -0.00
                               -0.00   -249.63     -0.00
                               -0.00     -0.00   -249.26

     ewald   stress (kbar) -80222.83      0.02      0.02
                                0.02 -80222.78     -0.06
                                0.02     -0.06 -74889.97

     hubbard stress (kbar)      0.00      0.00      0.00
                                0.00      0.00      0.00
                                0.00      0.00      0.00

     london  stress (kbar)      0.00      0.00      0.00
                                0.00      0.00      0.00
                                0.00      0.00      0.00

     DFT-D3  stress (kbar)      0.00      0.00      0.00
                                0.00      0.00      0.00
                                0.00      0.00      0.00

     XDM     stress (kbar)      0.00      0.00      0.00
                                0.00      0.00      0.00
                                0.00      0.00      0.00

     dft-nl  stress (kbar)      0.00      0.00      0.00
                                0.00      0.00      0.00
                                0.00      0.00      0.00

     TS-vdW  stress (kbar)      0.00      0.00      0.00
                                0.00      0.00      0.00
                                0.00      0.00      0.00

     Writing output data file ZnO.save/

     General routines

     Parallel routines

   This run was terminated on:  15: 3:48  16Jun2022

   JOB DONE.