     Program PWSCF v.6.4.1 starts on 15Jun2022 at 23:27:31

     K-points division:     npool     =       4
     R & G space division:  proc/nbgrp/npool/nimage =      16
     Waiting for input...
     Reading input from standard input
Warning: card &IONS ignored
Warning: card   UPSCALE           = 100.D0, ignored
Warning: card / ignored
Warning: card &CELL ignored
Warning: card   CELL_DYNAMICS     = 'BFGS' ignored
Warning: card   PRESS_CONV_THR    = 0.5D0 ignored
Warning: card   CELL_DOFREE = 'ALL' ignored
Warning: card / ignored

     Current dimensions of program PWSCF are:
     Max number of different atomic species (ntypx) = 10
     Max number of k-points (npk) =  40000
     Max angular momentum in pseudopotentials (lmaxx) =  3

     Message from routine set_sym_bl:
     NOTICE: Symmetry group for Bravais lattice is not a group (12) - symmetries are disabled

     bravais-lattice index     =            0
     lattice parameter (alat)  =       6.3140  a.u.
     unit-cell volume          =     315.0809 (a.u.)^3
     number of atoms/cell      =            4
     number of atomic types    =            3
     number of electrons       =        42.00
     number of Kohn-Sham states=           21
     kinetic-energy cutoff     =      80.0000  Ry
     charge density cutoff     =     600.0000  Ry
     convergence threshold     =      1.0E-06
     mixing beta               =       0.5000
     number of iterations used =            8  plain     mixing
     Exchange-correlation      = SLA  PW   PSX  PSC ( 1  4 10  8 0 0)

     celldm(1)=   6.314027  celldm(2)=   0.000000  celldm(3)=   0.000000
     celldm(4)=   0.000000  celldm(5)=   0.000000  celldm(6)=   0.000000

     crystal axes: (cart. coord. in units of alat)
               a(1) = (   1.000000   0.000000   0.000000 )
               a(2) = (  -0.500000   0.866025  -0.000000 )
               a(3) = (   0.000001  -0.000000   1.445347 )

     reciprocal axes: (cart. coord. in units 2 pi/alat)
               b(1) = (  1.000000  0.577350 -0.000000 )
               b(2) = ( -0.000000  1.154701  0.000000 )
               b(3) = ( -0.000000  0.000000  0.691875 )

     PseudoPot. # 1 for Mg read from file:
     ./GBRV_PBEsol/mg_pbesol_v1.4.uspp.F.UPF
     MD5 check sum: 4059f37963cf5867752dbf5ab2400678
     Pseudo is Ultrasoft, Zval = 10.0
     Generated by new atomic code, or converted to UPF format
     Using radial grid of  821 points,  7 beta functions with:
                l(1) =   0
                l(2) =   0
                l(3) =   0
                l(4) =   1
                l(5) =   1
                l(6) =   2
                l(7) =   2
     Q(r) pseudized with  8 coefficients,  rinner =    1.200   1.200   1.200
                                                       1.200   1.200

     PseudoPot. # 2 for Zn read from file:
     ./GBRV_PBEsol/zn_pbesol_v1.uspp.F.UPF
     MD5 check sum: 7d8615e52efe7c1e2b1899de8658bae2
     Pseudo is Ultrasoft, Zval = 20.0
     Generated by new atomic code, or converted to UPF format
     Using radial grid of  943 points,  6 beta functions with:
                l(1) =   0
                l(2) =   0
                l(3) =   1
                l(4) =   1
                l(5) =   2
                l(6) =   2
     Q(r) pseudized with  8 coefficients,  rinner =    1.100   1.100   1.100
                                                       1.100   1.100

     PseudoPot. # 3 for O  read from file:
     ./GBRV_PBEsol/o_pbesol_v1.2.uspp.F.UPF
     MD5 check sum: 501638753501ef6325af9037351f7734
     Pseudo is Ultrasoft + core correction, Zval =  6.0
     Generated by new atomic code, or converted to UPF format
     Using radial grid of  737 points,  5 beta functions with:
                l(1) =   0
                l(2) =   0
                l(3) =   1
                l(4) =   1
                l(5) =   2
     Q(r) pseudized with  8 coefficients,  rinner =    0.900   0.900   0.900
                                                       0.900   0.900

     atomic species   valence    mass     pseudopotential
        Mg            10.00    24.30500     Mg( 1.00)
        Zn            20.00    65.38000     Zn( 1.00)
        O              6.00    15.99900     O ( 1.00)

     No symmetry found

                                    s                        frac. trans.

      isym =  1     identity

 cryst.   s( 1) = (     1          0          0      )
                  (     0          1          0      )
                  (     0          0          1      )

 cart.    s( 1) = (  1.0000000  0.0000000 -0.0000000 )
                  (  0.0000000  1.0000000  0.0000000 )
                  (  0.0000000  0.0000000  1.0000000 )

   Cartesian axes

     site n.     atom                  positions (alat units)
         1           O   tau(   1) = (   0.5000002   0.2886755   0.0106175  )
         2           O   tau(   2) = (   0.0000005   0.5773492   0.7332906  )
         3           Zn  tau(   3) = (   0.5000004   0.2886747   0.8440740  )
         4           Mg  tau(   4) = (   0.0000007   0.5773508   1.5714947  )

   Crystallographic axes

     site n.     atom                  positions (cryst. coord.)
         1           O   tau(   1) = (  0.6666670  0.3333337  0.0073459  )
         2           O   tau(   2) = (  0.3333329  0.6666657  0.5073458  )
         3           Zn  tau(   3) = (  0.6666664  0.3333329  0.5839939  )
         4           Mg  tau(   4) = (  0.3333336  0.6666677  1.0872785  )

     number of k points=   260
                       cart. coord. in units 2pi/alat
        k(    1) = (   0.0000000   0.0000000   0.0000000), wk =   0.0039062
        k(    2) = (  -0.0000000   0.0000000   0.0864844), wk =   0.0078125
        k(    3) = (  -0.0000001   0.0000000   0.1729688), wk =   0.0078125
        k(    4) = (  -0.0000001   0.0000000   0.2594533), wk =   0.0078125
        k(    5) = (   0.0000001  -0.0000000  -0.3459377), wk =   0.0039062
        k(    6) = (  -0.0000000   0.1443376   0.0000000), wk =   0.0078125
        k(    7) = (  -0.0000001   0.1443376   0.0864844), wk =   0.0078125
        k(    8) = (  -0.0000001   0.1443376   0.1729689), wk =   0.0078125
        k(    9) = (  -0.0000001   0.1443376   0.2594533), wk =   0.0078125
        k(   10) = (   0.0000001   0.1443376  -0.3459377), wk =   0.0078125
        k(   11) = (   0.0000001   0.1443376  -0.2594533), wk =   0.0078125
        k(   12) = (   0.0000001   0.1443376  -0.1729688), wk =   0.0078125
        k(   13) = (   0.0000000   0.1443376  -0.0864844), wk =   0.0078125
        k(   14) = (  -0.0000000   0.2886752   0.0000000), wk =   0.0078125
        k(   15) = (  -0.0000001   0.2886752   0.0864845), wk =   0.0078125
        k(   16) = (  -0.0000001   0.2886752   0.1729689), wk =   0.0078125
        k(   17) = (  -0.0000002   0.2886752   0.2594533), wk =   0.0078125
        k(   18) = (   0.0000001   0.2886751  -0.3459377), wk =   0.0078125
        k(   19) = (   0.0000001   0.2886752  -0.2594532), wk =   0.0078125
        k(   20) = (   0.0000000   0.2886752  -0.1729688), wk =   0.0078125
        k(   21) = (  -0.0000000   0.2886752  -0.0864844), wk =   0.0078125
        k(   22) = (  -0.0000001   0.4330128   0.0000001), wk =   0.0078125
        k(   23) = (  -0.0000001   0.4330128   0.0864845), wk =   0.0078125
        k(   24) = (  -0.0000001   0.4330128   0.1729689), wk =   0.0078125
        k(   25) = (  -0.0000002   0.4330128   0.2594533), wk =   0.0078125
        k(   26) = (   0.0000001   0.4330127  -0.3459376), wk =   0.0078125
        k(   27) = (   0.0000000   0.4330127  -0.2594532), wk =   0.0078125
        k(   28) = (   0.0000000   0.4330128  -0.1729688), wk =   0.0078125
        k(   29) = (  -0.0000000   0.4330128  -0.0864844), wk =   0.0078125
        k(   30) = (   0.0000001  -0.5773504  -0.0000001), wk =   0.0039062
        k(   31) = (   0.0000001  -0.5773503   0.0864843), wk =   0.0078125
        k(   32) = (   0.0000000  -0.5773503   0.1729688), wk =   0.0078125
        k(   33) = (  -0.0000000  -0.5773503   0.2594532), wk =   0.0078125
        k(   34) = (   0.0000002  -0.5773504  -0.3459378), wk =   0.0039062
        k(   35) = (   0.1250000   0.0721688  -0.0000001), wk =   0.0078125
        k(   36) = (   0.1250000   0.0721688   0.0864844), wk =   0.0078125
        k(   37) = (   0.1249999   0.0721688   0.1729688), wk =   0.0078125
        k(   38) = (   0.1249999   0.0721688   0.2594532), wk =   0.0078125
        k(   39) = (   0.1250001   0.0721687  -0.3459377), wk =   0.0078125
        k(   40) = (   0.1250001   0.0721688  -0.2594533), wk =   0.0078125
        k(   41) = (   0.1250001   0.0721688  -0.1729689), wk =   0.0078125
        k(   42) = (   0.1250000   0.0721688  -0.0864845), wk =   0.0078125
        k(   43) = (   0.1250000   0.2165064  -0.0000000), wk =   0.0078125
        k(   44) = (   0.1249999   0.2165064   0.0864844), wk =   0.0078125
        k(   45) = (   0.1249999   0.2165064   0.1729688), wk =   0.0078125
        k(   46) = (   0.1249999   0.2165064   0.2594532), wk =   0.0078125
        k(   47) = (   0.1250001   0.2165063  -0.3459377), wk =   0.0078125
        k(   48) = (   0.1250001   0.2165063  -0.2594533), wk =   0.0078125
        k(   49) = (   0.1250000   0.2165063  -0.1729689), wk =   0.0078125
        k(   50) = (   0.1250000   0.2165064  -0.0864845), wk =   0.0078125
        k(   51) = (   0.1249999   0.3608440  -0.0000000), wk =   0.0078125
        k(   52) = (   0.1249999   0.3608440   0.0864844), wk =   0.0078125
        k(   53) = (   0.1249999   0.3608440   0.1729688), wk =   0.0078125
        k(   54) = (   0.1249998   0.3608440   0.2594533), wk =   0.0078125
        k(   55) = (   0.1250001   0.3608439  -0.3459377), wk =   0.0078125
        k(   56) = (   0.1250001   0.3608439  -0.2594533), wk =   0.0078125
        k(   57) = (   0.1250000   0.3608439  -0.1729689), wk =   0.0078125
        k(   58) = (   0.1250000   0.3608439  -0.0864844), wk =   0.0078125
        k(   59) = (   0.1249999   0.5051815   0.0000000), wk =   0.0078125
        k(   60) = (   0.1249999   0.5051816   0.0864844), wk =   0.0078125
[...]
        k(  246) = (  -0.4999999   0.0000001  -0.1729686), wk =   0.0078125
        k(  247) = (  -0.5000000   0.0000001  -0.0864842), wk =   0.0078125
        k(  248) = (  -0.5000000   0.1443377   0.0000003), wk =   0.0078125
        k(  249) = (  -0.5000001   0.1443377   0.0864847), wk =   0.0078125
        k(  250) = (  -0.5000001   0.1443377   0.1729691), wk =   0.0078125
        k(  251) = (  -0.5000001   0.1443377   0.2594535), wk =   0.0078125
        k(  252) = (  -0.4999999   0.1443376  -0.3459374), wk =   0.0078125
        k(  253) = (  -0.4999999   0.1443376  -0.2594530), wk =   0.0078125
        k(  254) = (  -0.4999999   0.1443377  -0.1729686), wk =   0.0078125
        k(  255) = (  -0.5000000   0.1443377  -0.0864842), wk =   0.0078125
        k(  256) = (  -0.4999999  -0.8660255   0.0000001), wk =   0.0039062
        k(  257) = (  -0.4999999  -0.8660254   0.0864845), wk =   0.0078125
        k(  258) = (  -0.4999999  -0.8660254   0.1729690), wk =   0.0078125
        k(  259) = (  -0.5000000  -0.8660254   0.2594534), wk =   0.0078125
        k(  260) = (  -0.4999997  -0.8660255  -0.3459376), wk =   0.0039062

                       cryst. coord.
        k(    1) = (   0.0000000   0.0000000   0.0000000), wk =   0.0039062
        k(    2) = (  -0.0000000   0.0000000   0.1250000), wk =   0.0078125
        k(    3) = (  -0.0000000   0.0000000   0.2500000), wk =   0.0078125
        k(    4) = (   0.0000000  -0.0000000   0.3750000), wk =   0.0078125
        k(    5) = (   0.0000000  -0.0000000  -0.5000000), wk =   0.0039062
        k(    6) = (  -0.0000000   0.1250000   0.0000000), wk =   0.0078125
        k(    7) = (  -0.0000000   0.1250000   0.1250000), wk =   0.0078125
        k(    8) = (   0.0000000   0.1250000   0.2500000), wk =   0.0078125
        k(    9) = (   0.0000000   0.1250000   0.3750000), wk =   0.0078125
        k(   10) = (  -0.0000000   0.1250000  -0.5000000), wk =   0.0078125
        k(   11) = (  -0.0000000   0.1250000  -0.3750000), wk =   0.0078125
        k(   12) = (   0.0000000   0.1250000  -0.2500000), wk =   0.0078125
        k(   13) = (  -0.0000000   0.1250000  -0.1250000), wk =   0.0078125
        k(   14) = (  -0.0000000   0.2500000   0.0000000), wk =   0.0078125
        k(   15) = (  -0.0000000   0.2500000   0.1250000), wk =   0.0078125
        k(   16) = (  -0.0000000   0.2500000   0.2500000), wk =   0.0078125
        k(   17) = (   0.0000000   0.2500000   0.3750000), wk =   0.0078125
        k(   18) = (   0.0000000   0.2500000  -0.5000000), wk =   0.0078125
        k(   19) = (  -0.0000000   0.2500000  -0.3750000), wk =   0.0078125
        k(   20) = (  -0.0000000   0.2500000  -0.2500000), wk =   0.0078125
        k(   21) = (  -0.0000000   0.2500000  -0.1250000), wk =   0.0078125
        k(   22) = (  -0.0000000   0.3750000   0.0000000), wk =   0.0078125
        k(   23) = (  -0.0000000   0.3750000   0.1250000), wk =   0.0078125
        k(   24) = (  -0.0000000   0.3750000   0.2500000), wk =   0.0078125
        k(   25) = (  -0.0000000   0.3750000   0.3750000), wk =   0.0078125
        k(   26) = (  -0.0000000   0.3750000  -0.5000000), wk =   0.0078125
        k(   27) = (  -0.0000000   0.3750000  -0.3750000), wk =   0.0078125
        k(   28) = (  -0.0000000   0.3750000  -0.2500000), wk =   0.0078125
        k(   29) = (  -0.0000000   0.3750000  -0.1250000), wk =   0.0078125
        k(   30) = (   0.0000000  -0.5000000  -0.0000000), wk =   0.0039062
        k(   31) = (   0.0000000  -0.5000000   0.1250000), wk =   0.0078125
        k(   32) = (   0.0000000  -0.5000000   0.2500000), wk =   0.0078125
        k(   33) = (   0.0000000  -0.5000000   0.3750000), wk =   0.0078125
        k(   34) = (   0.0000000  -0.5000000  -0.5000000), wk =   0.0039062
        k(   35) = (   0.1250000  -0.0000000   0.0000000), wk =   0.0078125
        k(   36) = (   0.1250000  -0.0000000   0.1250000), wk =   0.0078125
        k(   37) = (   0.1250000  -0.0000000   0.2500000), wk =   0.0078125
        k(   38) = (   0.1250000  -0.0000000   0.3750000), wk =   0.0078125
        k(   39) = (   0.1250000  -0.0000000  -0.5000000), wk =   0.0078125
        k(   40) = (   0.1250000  -0.0000000  -0.3750000), wk =   0.0078125
        k(   41) = (   0.1250000  -0.0000000  -0.2500000), wk =   0.0078125
        k(   42) = (   0.1250000  -0.0000000  -0.1250000), wk =   0.0078125
        k(   43) = (   0.1250000   0.1250000   0.0000000), wk =   0.0078125
        k(   44) = (   0.1250000   0.1250000   0.1250000), wk =   0.0078125
        k(   45) = (   0.1250000   0.1250000   0.2500000), wk =   0.0078125
        k(   46) = (   0.1250000   0.1250000   0.3750000), wk =   0.0078125
        k(   47) = (   0.1250000   0.1250000  -0.5000000), wk =   0.0078125
        k(   48) = (   0.1250000   0.1250000  -0.3750000), wk =   0.0078125
        k(   49) = (   0.1250000   0.1250000  -0.2500000), wk =   0.0078125
        k(   50) = (   0.1250000   0.1250000  -0.1250000), wk =   0.0078125
        k(   51) = (   0.1250000   0.2500000   0.0000000), wk =   0.0078125
        k(   52) = (   0.1250000   0.2500000   0.1250000), wk =   0.0078125
        k(   53) = (   0.1250000   0.2500000   0.2500000), wk =   0.0078125
        k(   54) = (   0.1250000   0.2500000   0.3750000), wk =   0.0078125
        k(   55) = (   0.1250000   0.2500000  -0.5000000), wk =   0.0078125
        k(   56) = (   0.1250000   0.2500000  -0.3750000), wk =   0.0078125
        k(   57) = (   0.1250000   0.2500000  -0.2500000), wk =   0.0078125
        k(   58) = (   0.1250000   0.2500000  -0.1250000), wk =   0.0078125
        k(   59) = (   0.1250000   0.3750000   0.0000000), wk =   0.0078125
        k(   60) = (   0.1250000   0.3750000   0.1250000), wk =   0.0078125
[...]
        k(  246) = (  -0.5000000   0.2500000  -0.2500000), wk =   0.0078125
        k(  247) = (  -0.5000000   0.2500000  -0.1250000), wk =   0.0078125
        k(  248) = (  -0.5000000   0.3750000  -0.0000000), wk =   0.0078125
        k(  249) = (  -0.5000000   0.3750000   0.1250000), wk =   0.0078125
        k(  250) = (  -0.5000000   0.3750000   0.2500000), wk =   0.0078125
        k(  251) = (  -0.5000000   0.3750000   0.3750000), wk =   0.0078125
        k(  252) = (  -0.5000000   0.3750000  -0.5000000), wk =   0.0078125
        k(  253) = (  -0.5000000   0.3750000  -0.3750000), wk =   0.0078125
        k(  254) = (  -0.5000000   0.3750000  -0.2500000), wk =   0.0078125
        k(  255) = (  -0.5000000   0.3750000  -0.1250000), wk =   0.0078125
        k(  256) = (  -0.5000000  -0.5000000  -0.0000000), wk =   0.0039062
        k(  257) = (  -0.5000000  -0.5000000   0.1250000), wk =   0.0078125
        k(  258) = (  -0.5000000  -0.5000000   0.2500000), wk =   0.0078125
        k(  259) = (  -0.5000000  -0.5000000   0.3750000), wk =   0.0078125
        k(  260) = (  -0.5000000  -0.5000000  -0.5000000), wk =   0.0039062

     Check: negative core charge=   -0.000003

     Initial potential from superposition of free atoms

     starting charge   41.69964, renormalised to   42.00000
     Starting wfcs are   26 randomized atomic wfcs

     Self-consistent Calculation

     iteration #  1     ecut=    80.00 Ry     beta= 0.50
     Davidson diagonalization with overlap
     ethr =  1.00E-02,  avg # of iterations =  2.0

     total energy              =    -650.62100912 Ry
     Harris-Foulkes estimate   =    -651.45735084 Ry
     estimated scf accuracy    <       1.25313701 Ry

[...]

     total energy              =    -651.12730735 Ry
     Harris-Foulkes estimate   =    -651.12730303 Ry
     estimated scf accuracy    <       0.00001326 Ry

     iteration #  7     ecut=    80.00 Ry     beta= 0.50
     Davidson diagonalization with overlap
     ethr =  3.16E-08,  avg # of iterations =  2.0

     End of self-consistent calculation

          k = 0.0000 0.0000 0.0000 (  3751 PWs)   bands (ev):

  -115.7887 -70.1655 -70.1368 -70.1368 -65.1027 -32.1102 -32.0648 -32.0648
   -10.3625  -9.1670   1.5481   1.5481   2.4226   2.8203   2.8203   2.8811
     5.6671   5.6671   6.8152   6.9867   6.9867

     occupation numbers
     1.0000   1.0000   1.0000   1.0000   1.0000   1.0000   1.0000   1.0000
     1.0000   1.0000   1.0000   1.0000   1.0000   1.0000   1.0000   1.0000
     1.0000   1.0000   1.0000   1.0000   1.0000

          k =-0.0000 0.0000 0.0865 (  3776 PWs)   bands (ev):

[...]

          k = 0.3750 0.0722-0.0865 (  3803 PWs)   bands (ev):

[...]

          k =-0.5000-0.8660-0.3459 (  3800 PWs)   bands (ev):

  -115.7887 -70.1654 -70.1385 -70.1373 -65.1013 -32.1079 -32.0908 -32.0706
    -9.7101  -9.0133   1.4563   2.0691   2.1752   2.2486   2.8031   3.0328
     4.1453   5.2429   5.5731   5.7373   6.6873

     occupation numbers
     1.0000   1.0000   1.0000   1.0000   1.0000   1.0000   1.0000   1.0000
     1.0000   1.0000   1.0000   1.0000   1.0000   1.0000   1.0000   1.0000
     1.0000   1.0000   1.0000   1.0000   1.0000

     highest occupied level (ev):     6.9867

!    total energy              =    -651.12730890 Ry
     Harris-Foulkes estimate   =    -651.12730833 Ry
     estimated scf accuracy    <       0.00000096 Ry

     The total energy is the sum of the following terms:

     one-electron contribution =    -532.98777692 Ry
     hartree contribution      =     279.96574003 Ry
     xc contribution           =     -73.07406611 Ry
     ewald contribution        =    -325.03120590 Ry

     convergence has been achieved in   7 iterations

     Forces acting on atoms (cartesian axes, Ry/au):

     atom    1 type  3   force =     0.00000128    0.00000072   -0.00315018
     atom    2 type  3   force =     0.00000098   -0.00000112   -0.01009514
     atom    3 type  2   force =    -0.00000310    0.00000154    0.01664611
     atom    4 type  1   force =     0.00000084   -0.00000114   -0.00340078
     The non-local contrib.  to forces
     atom    1 type  3   force =    -0.00000083   -0.00000112   -0.16330045
     atom    2 type  3   force =    -0.00000009    0.00000075    0.00589380
     atom    3 type  2   force =     0.00000081   -0.00000310   -0.24966713
     atom    4 type  1   force =    -0.00000054   -0.00000134   -0.07571699
     The ionic contribution  to forces
     atom    1 type  3   force =     0.00000323    0.00002640    5.08588105
     atom    2 type  3   force =    -0.00000312    0.00001235   -3.29646768
     atom    3 type  2   force =     0.00000214   -0.00002280   -0.74667585
     atom    4 type  1   force =    -0.00000225   -0.00001596   -1.04273753
     The local contribution  to forces
     atom    1 type  3   force =    -0.00000221   -0.00002455   -4.92748266
     atom    2 type  3   force =     0.00000304   -0.00001416    3.28167492
     atom    3 type  2   force =    -0.00000223    0.00002799    1.01178349
     atom    4 type  1   force =     0.00000302    0.00001579    1.11545156
     The core correction contribution to forces
     atom    1 type  3   force =     0.00000001   -0.00000000    0.00137851
     atom    2 type  3   force =     0.00000000   -0.00000002   -0.00059670
     atom    3 type  2   force =     0.00000000    0.00000000    0.00000000
     atom    4 type  1   force =     0.00000000    0.00000000    0.00000000
     The Hubbard contrib.    to forces
     atom    1 type  3   force =     0.00000000    0.00000000    0.00000000
     atom    2 type  3   force =     0.00000000    0.00000000    0.00000000
     atom    3 type  2   force =     0.00000000    0.00000000    0.00000000
     atom    4 type  1   force =     0.00000000    0.00000000    0.00000000
     The SCF correction term to forces
     atom    1 type  3   force =     0.00000000    0.00000000    0.00000000
     atom    2 type  3   force =     0.00000000    0.00000000    0.00000000
     atom    3 type  2   force =     0.00000000    0.00000000    0.00000000
     atom    4 type  1   force =     0.00000000    0.00000000    0.00000000

     Total force =     0.000000     Total SCF correction =     0.000000

     Computing stress (Cartesian axis) and pressure

          total   stress  (Ry/bohr**3)                   (kbar)     P=   -1.57
  -0.00000871   0.00000000  -0.00000001         -1.28      0.00     -0.00
   0.00000000  -0.00000870   0.00000000          0.00     -1.28      0.00
  -0.00000001   0.00000000  -0.00001456         -0.00      0.00     -2.14

     kinetic stress (kbar)  26743.44     -0.00     -0.00
                               -0.00  26743.44      0.00
                               -0.00      0.00  26909.00

     local   stress (kbar) -16461.05     -0.01     -0.05
                               -0.01 -16461.05      0.04
                               -0.05      0.04    722.77

     nonloc. stress (kbar)   1811.82     -0.00      0.00
                               -0.00   1811.82     -0.00
                                0.00     -0.00   1738.41

     hartree stress (kbar)  46173.71      0.00      0.02
                                0.00  46173.72     -0.01
                                0.02     -0.01  38363.06

     exc-cor stress (kbar) -10587.50      0.00      0.00
                                0.00 -10587.50     -0.00
                                0.00     -0.00 -10591.04

     corecor stress (kbar)   -252.26     -0.00      0.00
                               -0.00   -252.26      0.00
                                0.00      0.00   -252.56

     ewald   stress (kbar) -47429.44      0.01      0.03
                                0.01 -47429.44     -0.02
                                0.03     -0.02 -56891.79

     hubbard stress (kbar)      0.00      0.00      0.00
                                0.00      0.00      0.00
                                0.00      0.00      0.00

     london  stress (kbar)      0.00      0.00      0.00
                                0.00      0.00      0.00
                                0.00      0.00      0.00

     DFT-D3  stress (kbar)      0.00      0.00      0.00
                                0.00      0.00      0.00
                                0.00      0.00      0.00

     XDM     stress (kbar)      0.00      0.00      0.00
                                0.00      0.00      0.00
                                0.00      0.00      0.00

     dft-nl  stress (kbar)      0.00      0.00      0.00
                                0.00      0.00      0.00
                                0.00      0.00      0.00

     TS-vdW  stress (kbar)      0.00      0.00      0.00
                                0.00      0.00      0.00
                                0.00      0.00      0.00

     Writing output data file ZnO.save/

     General routines

     Parallel routines

   This run was terminated on:  23:27:45  15Jun2022

   JOB DONE.