     Program PWSCF v.6.4.1 starts on 25Apr2021 at  8:41:34

     K-points division:     npool     =       4
     R & G space division:  proc/nbgrp/npool/nimage =      24
     Reading input from M.in
Warning: card &IONS ignored
Warning: card   UPSCALE           = 100.D0, ignored
Warning: card / ignored
Warning: card &CELL ignored
Warning: card   CELL_DYNAMICS     = 'BFGS' ignored
Warning: card   PRESS_CONV_THR    = 0.5D0 ignored
Warning: card   CELL_DOFREE = 'Y' ignored
Warning: card / ignored

     Current dimensions of program PWSCF are:
     Max number of different atomic species (ntypx) = 10
     Max number of k-points (npk) =  60000
     Max angular momentum in pseudopotentials (lmaxx) =  3

     bravais-lattice index     =            0
     lattice parameter (alat)  =      37.7945  a.u.
     unit-cell volume          =   16628.6293 (a.u.)^3
     number of atoms/cell      =           15
     number of atomic types    =            2
     number of electrons       =       168.00
     number of Kohn-Sham states=           84
     kinetic-energy cutoff     =      50.0000  Ry
     charge density cutoff     =     250.0000  Ry
     convergence threshold     =      1.0E-10
     mixing beta               =       0.5000
     number of iterations used =            8  plain     mixing
     Exchange-correlation      = SLA  PW   PSX  PSC ( 1  4 10  8 0 0)

     celldm(1)=  37.794523  celldm(2)=   0.000000  celldm(3)=   0.000000
     celldm(4)=   0.000000  celldm(5)=   0.000000  celldm(6)=   0.000000

     crystal axes: (cart. coord. in units of alat)
               a(1) = (   1.000000   0.000000   0.000000 )
               a(2) = (   0.000000   0.308014   0.000000 )
               a(3) = (   0.000000   0.000000   1.000000 )

     reciprocal axes: (cart. coord. in units 2 pi/alat)
               b(1) = (  1.000000  0.000000  0.000000 )
               b(2) = (  0.000000  3.246610  0.000000 )
               b(3) = (  0.000000  0.000000  1.000000 )

     PseudoPot. # 1 for Ga read from file:
     ./GBRV_PBEsol/ga_pbesol_v1.4.uspp.F.UPF
     MD5 check sum: c51a1280f7300f419a8cd4df5a064fc3
     Pseudo is Ultrasoft + core correction, Zval = 19.0
     Generated by new atomic code, or converted to UPF format
     Using radial grid of  871 points,  6 beta functions with:
                l(1) =   0
                l(2) =   0
                l(3) =   1
                l(4) =   1
                l(5) =   2
                l(6) =   2
     Q(r) pseudized with  8 coefficients,  rinner =    1.250   1.250   1.250
                                                       1.250   1.250

     PseudoPot. # 2 for Se read from file:
     ./GBRV_PBEsol/se_pbesol_v1.uspp.F.UPF
     MD5 check sum: a3b4745ad650bb7419ce2e0d5f176975
     Pseudo is Ultrasoft + core correction, Zval =  6.0
     Generated by new atomic code, or converted to UPF format
     Using radial grid of  877 points,  6 beta functions with:
                l(1) =   0
                l(2) =   0
                l(3) =   1
                l(4) =   1
                l(5) =   2
                l(6) =   2
     Q(r) pseudized with  8 coefficients,  rinner =    1.300   1.300   1.300
                                                       1.300   1.300

     atomic species   valence    mass     pseudopotential
        Ga            19.00    69.72300     Ga( 1.00)
        Se             6.00    78.97100     Se( 1.00)

     No symmetry found

                                    s                        frac. trans.

      isym =  1     identity

 cryst.   s( 1) = (     1          0          0      )
                  (     0          1          0      )
                  (     0          0          1      )

 cart.    s( 1) = (  1.0000000  0.0000000  0.0000000 )
                  (  0.0000000  1.0000000  0.0000000 )
                  (  0.0000000  0.0000000  1.0000000 )

   Cartesian axes

     site n.     atom                  positions (alat units)
         1           Ga  tau(   1) = (   0.5248347   0.0299242   0.6479012  )
         2           Ga  tau(   2) = (   0.4328257   0.2600427   0.4430553  )
         3           Ga  tau(   3) = (   0.6168722   0.2600428   0.4430682  )
         4           Ga  tau(   4) = (   0.4408597   0.1557705   0.5942071  )
         5           Ga  tau(   5) = (   0.6088167   0.1557704   0.5942191  )
         6           Ga  tau(   6) = (   0.5248514   0.0876280   0.4080764  )
         7           Se  tau(   7) = (   0.3667845   0.2215036   0.5282157  )
         8           Se  tau(   8) = (   0.6829006   0.2215038   0.5282382  )
         9           Se  tau(   9) = (   0.5248340   0.2190113   0.6593722  )
        10           Se  tau(  10) = (   0.5248536   0.2067750   0.3827398  )
        11           Se  tau(  11) = (   0.5248431   0.0881184   0.5301329  )
        12           Se  tau(  12) = (   0.4150601   0.0700013   0.6707994  )
        13           Se  tau(  13) = (   0.6346066   0.0700013   0.6708148  )
        14           Se  tau(  14) = (   0.4163428   0.0482322   0.3800322  )
        15           Se  tau(  15) = (   0.6333641   0.0482323   0.3800474  )

   Crystallographic axes

     site n.     atom                  positions (cryst. coord.)
         1           Ga  tau(   1) = (  0.5248347  0.0971521  0.6479012  )
         2           Ga  tau(   2) = (  0.4328257  0.8442573  0.4430553  )
         3           Ga  tau(   3) = (  0.6168722  0.8442575  0.4430682  )
         4           Ga  tau(   4) = (  0.4408597  0.5057259  0.5942071  )
         5           Ga  tau(   5) = (  0.6088167  0.5057257  0.5942191  )
         6           Ga  tau(   6) = (  0.5248514  0.2844939  0.4080764  )
         7           Se  tau(   7) = (  0.3667845  0.7191359  0.5282157  )
         8           Se  tau(   8) = (  0.6829006  0.7191366  0.5282382  )
         9           Se  tau(   9) = (  0.5248340  0.7110444  0.6593722  )
        10           Se  tau(  10) = (  0.5248536  0.6713178  0.3827398  )
        11           Se  tau(  11) = (  0.5248431  0.2860861  0.5301329  )
        12           Se  tau(  12) = (  0.4150601  0.2272671  0.6707994  )
        13           Se  tau(  13) = (  0.6346066  0.2272671  0.6708148  )
        14           Se  tau(  14) = (  0.4163428  0.1565912  0.3800322  )
        15           Se  tau(  15) = (  0.6333641  0.1565914  0.3800474  )

     number of k points=     5
                       cart. coord. in units 2pi/alat
        k(    1) = (   0.0000000   0.0000000   0.0000000), wk =   0.2500000
        k(    2) = (   0.0000000   0.4058263   0.0000000), wk =   0.5000000
        k(    3) = (   0.0000000   0.8116525   0.0000000), wk =   0.5000000
        k(    4) = (   0.0000000   1.2174788   0.0000000), wk =   0.5000000
        k(    5) = (   0.0000000  -1.6233051   0.0000000), wk =   0.2500000

                       cryst. coord.
        k(    1) = (   0.0000000   0.0000000   0.0000000), wk =   0.2500000
        k(    2) = (   0.0000000   0.1250000   0.0000000), wk =   0.5000000
        k(    3) = (   0.0000000   0.2500000   0.0000000), wk =   0.5000000
        k(    4) = (   0.0000000   0.3750000   0.0000000), wk =   0.5000000
        k(    5) = (   0.0000000  -0.5000000   0.0000000), wk =   0.2500000

     Initial potential from superposition of free atoms

     starting charge  161.99940, renormalised to  168.00000

     negative rho (up, down):  2.010E-03 0.000E+00
     Starting wfcs are  108 randomized atomic wfcs

     Self-consistent Calculation

     iteration #  1     ecut=    50.00 Ry     beta= 0.50
     Davidson diagonalization with overlap
     ethr =  1.00E-02,  avg # of iterations =  2.2

     negative rho (up, down):  8.289E-04 0.000E+00

     total energy              =   -2868.75101559 Ry
     Harris-Foulkes estimate   =   -2886.00055620 Ry
     estimated scf accuracy    <      24.03895349 Ry

[...]

     total energy              =   -2880.07333828 Ry
     Harris-Foulkes estimate   =   -2880.07333828 Ry
     estimated scf accuracy    <          3.5E-10 Ry

     iteration # 15     ecut=    50.00 Ry     beta= 0.50
     Davidson diagonalization with overlap
     ethr =  2.10E-13,  avg # of iterations =  5.0

[...]

     End of self-consistent calculation

          k = 0.0000 0.0000 0.0000 ( 99235 PWs)   bands (ev):

  -98.51078395-98.51076761-98.40523150-98.40521313-98.36549871-98.36548527-98.15803361-98.12208916
  -98.09288224-97.85307398-97.85293239-97.81730064-97.81722347-97.78522109-97.78520117-97.76162387
  -97.68711750-97.64419754-19.21002019-19.15027467-19.14839326-19.07432934-19.04902254-18.99461115
  -18.99433412-18.97458982-18.96606558-18.95963123-18.85461196-18.80768572-18.72244183-18.67220754
  -18.66933525-18.61140276-18.58663140-18.52467594-18.50487103-18.46072941-18.41026820-18.39048664
  -18.37088410-18.35191711-18.33680684-18.33034012-18.32957232-18.25088289-18.24965494-18.23377483
  -17.57700382-17.08173808-16.32376959-16.14736257-16.08340936-15.97216310-15.83550419-15.45638356
  -15.22324649-10.61253708-10.39667031-10.03743661 -9.66582125 -9.46315277 -8.32337186 -8.05429669
   -7.51256878 -7.35042649 -7.11323415 -6.60060286 -6.52370987 -6.40848395 -6.32450262 -6.23801949
   -6.16680253 -6.07307313 -5.90367996 -5.69424414 -5.09923206 -4.95423148 -4.91590651 -4.84783736
   -4.75838413 -4.61303832 -4.08994235 -4.03260865

     occupation numbers
    1.00000000  1.00000000  1.00000000  1.00000000  1.00000000  1.00000000  1.00000000  1.00000000
    1.00000000  1.00000000  1.00000000  1.00000000  1.00000000  1.00000000  1.00000000  1.00000000
    1.00000000  1.00000000  1.00000000  1.00000000  1.00000000  1.00000000  1.00000000  1.00000000
    1.00000000  1.00000000  1.00000000  1.00000000  1.00000000  1.00000000  1.00000000  1.00000000
    1.00000000  1.00000000  1.00000000  1.00000000  1.00000000  1.00000000  1.00000000  1.00000000
    1.00000000  1.00000000  1.00000000  1.00000000  1.00000000  1.00000000  1.00000000  1.00000000
    1.00000000  1.00000000  1.00000000  1.00000000  1.00000000  1.00000000  1.00000000  1.00000000
    1.00000000  1.00000000  1.00000000  1.00000000  1.00000000  1.00000000  1.00000000  1.00000000
    1.00000000  1.00000000  1.00000000  1.00000000  1.00000000  1.00000000  1.00000000  1.00000000
    1.00000000  1.00000000  1.00000000  1.00000000  1.00000000  1.00000000  1.00000000  1.00000000
    1.00000000  1.00000000  1.00000000  1.00000000

[...]

          k = 0.0000-1.6233 0.0000 ( 99298 PWs)   bands (ev):

  -98.51078476-98.51076910-98.40524101-98.40522264-98.36550930-98.36549563-98.15804071-98.12210735
  -98.09287764-97.85307426-97.85293487-97.81731086-97.81722465-97.78523665-97.78521390-97.76162210
  -97.68714430-97.64419297-19.20362126-19.15032225-19.14676318-19.07437995-19.05921462-18.99556028
  -18.99215437-18.97475383-18.96366894-18.96057215-18.84635827-18.82245842-18.72360964-18.67291675
  -18.66966923-18.61445767-18.57753392-18.52261293-18.49879652-18.46164847-18.40843875-18.38971235
  -18.37725384-18.35393412-18.33944822-18.32977532-18.32480589-18.25471215-18.25203281-18.23510571
  -17.23405053-16.99773869-16.45684213-16.27243823-16.12100133-16.00013722-15.99201225-15.45714488
  -15.44588625-10.66563341-10.27206189 -9.72099457 -9.59366338 -9.43056038 -9.03992746 -7.61341143
   -7.42720638 -7.12776822 -7.08362060 -6.58857645 -6.56601105 -6.34105923 -6.30707642 -6.07813716
   -5.97700580 -5.91251474 -5.66530963 -5.62887956 -5.41626362 -5.07593766 -5.02131331 -4.80409208
   -4.61401378 -4.46759775 -4.36960274 -3.88659578

     occupation numbers
    1.00000000  1.00000000  1.00000000  1.00000000  1.00000000  1.00000000  1.00000000  1.00000000
    1.00000000  1.00000000  1.00000000  1.00000000  1.00000000  1.00000000  1.00000000  1.00000000
    1.00000000  1.00000000  1.00000000  1.00000000  1.00000000  1.00000000  1.00000000  1.00000000
    1.00000000  1.00000000  1.00000000  1.00000000  1.00000000  1.00000000  1.00000000  1.00000000
    1.00000000  1.00000000  1.00000000  1.00000000  1.00000000  1.00000000  1.00000000  1.00000000
    1.00000000  1.00000000  1.00000000  1.00000000  1.00000000  1.00000000  1.00000000  1.00000000
    1.00000000  1.00000000  1.00000000  1.00000000  1.00000000  1.00000000  1.00000000  1.00000000
    1.00000000  1.00000000  1.00000000  1.00000000  1.00000000  1.00000000  1.00000000  1.00000000
    1.00000000  1.00000000  1.00000000  1.00000000  1.00000000  1.00000000  1.00000000  1.00000000
    1.00000000  1.00000000  1.00000000  1.00000000  1.00000000  1.00000000  1.00000000  1.00000000
    1.00000000  1.00000000  1.00000000  1.00000000

     highest occupied level (ev):    -3.8866

!    total energy              =   -2880.07333829 Ry
     Harris-Foulkes estimate   =   -2880.07333828 Ry
     estimated scf accuracy    <          5.6E-11 Ry

     The total energy is the sum of the following terms:

     one-electron contribution =   -8934.17851087 Ry
     hartree contribution      =    4460.26892691 Ry
     xc contribution           =    -552.35299224 Ry
     ewald contribution        =    2146.18923792 Ry

     convergence has been achieved in  15 iterations

     negative rho (up, down):  1.742E-03 0.000E+00

     Forces acting on atoms (cartesian axes, Ry/au):

     atom    1 type  1   force =     0.00000224   -0.00000407    0.00001184
     atom    2 type  1   force =     0.00000187   -0.00000115   -0.00000274
     atom    3 type  1   force =    -0.00000308    0.00000127   -0.00000161
     atom    4 type  1   force =     0.00000146    0.00000489    0.00000351
     atom    5 type  1   force =    -0.00000118    0.00000607    0.00000399
     atom    6 type  1   force =    -0.00000180   -0.00000293   -0.00000690
     atom    7 type  2   force =    -0.00000577   -0.00000576   -0.00000659
     atom    8 type  2   force =     0.00000232   -0.00000483   -0.00000620
     atom    9 type  2   force =     0.00000098   -0.00000486    0.00001174
     atom   10 type  2   force =     0.00000064    0.00000396   -0.00001224
     atom   11 type  2   force =     0.00000038   -0.00000209   -0.00000181
     atom   12 type  2   force =     0.00000004   -0.00000063    0.00000146
     atom   13 type  2   force =     0.00000248   -0.00000092    0.00000025
     atom   14 type  2   force =    -0.00000560    0.00000529    0.00000269
     atom   15 type  2   force =     0.00000501    0.00000576    0.00000262
     The non-local contrib.  to forces
     atom    1 type  1   force =     0.00001967   -0.05010695   -0.23547600
     atom    2 type  1   force =     0.29913561   -0.17889915   -0.07394898
     atom    3 type  1   force =    -0.29912032   -0.17889191   -0.07400008
     atom    4 type  1   force =     0.13404096    0.17581020   -0.22826319
     atom    5 type  1   force =    -0.13401389    0.17580459   -0.22827898
     atom    6 type  1   force =    -0.00000835    0.09807596    0.05792906
     atom    7 type  2   force =     0.34828708   -0.08999431   -0.08463612
     atom    8 type  2   force =    -0.34827609   -0.08999562   -0.08468722
     atom    9 type  2   force =     0.00002399    0.11237209   -0.28337324
     atom   10 type  2   force =    -0.00002062   -0.09064866    0.32956294
     atom   11 type  2   force =     0.00000426    0.08724163   -0.03170475
     atom   12 type  2   force =     0.24033038    0.10354236   -0.18001596
     atom   13 type  2   force =    -0.24029854    0.10354238   -0.18004888
     atom   14 type  2   force =     0.23899834   -0.13861510    0.16636192
     atom   15 type  2   force =    -0.23901883   -0.13861602    0.16632756
     The ionic contribution  to forces
     atom    1 type  1   force =    -0.00491976  -11.99751663   69.46820252
     atom    2 type  1   force =   -62.00066100   -2.03274994  -38.81722384
     atom    3 type  1   force =    62.00614318   -2.03270943  -38.80864207
     atom    4 type  1   force =   -65.02031315    4.95686048   34.99243968
     atom    5 type  1   force =    65.01528821    4.95687121   35.00160634
     atom    6 type  1   force =     0.00463451    4.97950413  -65.58868857
     atom    7 type  2   force =   -34.98101107    1.46795469    2.92747173
     atom    8 type  2   force =    34.98059611    1.46798538    2.93251480
     atom    9 type  2   force =    -0.00211848    1.26275196   29.36477874
     atom   10 type  2   force =     0.00220027   -0.30210713  -30.47323849
     atom   11 type  2   force =     0.00019139   -4.06781822   -2.29365146
     atom   12 type  2   force =   -26.19157078   -3.64306512   25.83788984
     atom   13 type  2   force =    26.18800383   -3.64308797   25.84138401
     atom   14 type  2   force =   -25.34475223    4.31355501  -25.19415900
     atom   15 type  2   force =    25.34828898    4.31357157  -25.19068422
     The local contribution  to forces
     atom    1 type  1   force =     0.00490166   12.04764608  -69.23410621
     atom    2 type  1   force =    61.70396006    2.21001148   38.89101401
     atom    3 type  1   force =   -61.70945645    2.20996431   38.88248119
     atom    4 type  1   force =    64.88622456   -5.13093945  -34.76587590
     atom    5 type  1   force =   -64.88122623   -5.13094626  -34.77502705
     atom    6 type  1   force =    -0.00462452   -5.07768204   65.53020841
     atom    7 type  2   force =    34.66527214   -1.38807907   -2.85001054
     atom    8 type  2   force =   -34.66486637   -1.38810757   -2.85500763
     atom    9 type  2   force =     0.00209671   -1.36284284  -29.10876194
     atom   10 type  2   force =    -0.00218111    0.38264994   30.17614997
     atom   11 type  2   force =    -0.00019504    3.98752371    2.31957652
     atom   12 type  2   force =    25.97205855    3.54888316  -25.67317914
     atom   13 type  2   force =   -25.96851806    3.54890565  -25.67664436
     atom   14 type  2   force =    25.12680619   -4.18710379   25.04163310
     atom   15 type  2   force =   -25.13032145   -4.18711918   25.03818952
     The core correction contribution to forces
     atom    1 type  1   force =    -0.00000041   -0.00002234    0.00138235
     atom    2 type  1   force =    -0.00243643    0.00163717    0.00015712
     atom    3 type  1   force =     0.00243660    0.00163690    0.00015756
     atom    4 type  1   force =     0.00004403   -0.00173061    0.00169991
     atom    5 type  1   force =    -0.00004461   -0.00173055    0.00170000
     atom    6 type  1   force =    -0.00000041    0.00010174    0.00054992
     atom    7 type  2   force =    -0.03255232    0.01011244    0.00716961
     atom    8 type  2   force =     0.03254877    0.01011256    0.00717430
     atom    9 type  2   force =    -0.00000071   -0.01228633    0.02736832
     atom   10 type  2   force =     0.00000342    0.01010894   -0.03248431
     atom   11 type  2   force =     0.00000089   -0.00694967    0.00577565
     atom   12 type  2   force =    -0.02081688   -0.00936053    0.01530731
     atom   13 type  2   force =     0.02081559   -0.00936043    0.01531002
     atom   14 type  2   force =    -0.02105372    0.01216994   -0.01383147
     atom   15 type  2   force =     0.02105417    0.01217011   -0.01382840
     The Hubbard contrib.    to forces
     atom    1 type  1   force =     0.00000000    0.00000000    0.00000000
     atom    2 type  1   force =     0.00000000    0.00000000    0.00000000
     atom    3 type  1   force =     0.00000000    0.00000000    0.00000000
     atom    4 type  1   force =     0.00000000    0.00000000    0.00000000
     atom    5 type  1   force =     0.00000000    0.00000000    0.00000000
     atom    6 type  1   force =     0.00000000    0.00000000    0.00000000
     atom    7 type  2   force =     0.00000000    0.00000000    0.00000000
     atom    8 type  2   force =     0.00000000    0.00000000    0.00000000
     atom    9 type  2   force =     0.00000000    0.00000000    0.00000000
     atom   10 type  2   force =     0.00000000    0.00000000    0.00000000
     atom   11 type  2   force =     0.00000000    0.00000000    0.00000000
     atom   12 type  2   force =     0.00000000    0.00000000    0.00000000
     atom   13 type  2   force =     0.00000000    0.00000000    0.00000000
     atom   14 type  2   force =     0.00000000    0.00000000    0.00000000
     atom   15 type  2   force =     0.00000000    0.00000000    0.00000000
     The SCF correction term to forces
     atom    1 type  1   force =     0.00000203   -0.00000406    0.00001083
     atom    2 type  1   force =     0.00000457   -0.00000054    0.00000060
     atom    3 type  1   force =    -0.00000514    0.00000156    0.00000345
     atom    4 type  1   force =     0.00000600    0.00000445    0.00000465
     atom    5 type  1   force =    -0.00000372    0.00000726    0.00000533
     atom    6 type  1   force =    -0.00000208   -0.00000255   -0.00000407
     atom    7 type  2   force =    -0.00000065    0.00000068    0.00000037
     atom    8 type  2   force =     0.00000085    0.00000060    0.00000120
     atom    9 type  2   force =     0.00000041    0.00000043    0.00000151
     atom   10 type  2   force =    -0.00000038    0.00000105   -0.00000069
     atom   11 type  2   force =    -0.00000016    0.00000063    0.00000388
     atom   12 type  2   force =    -0.00000029   -0.00000033    0.00000106
     atom   13 type  2   force =     0.00000060   -0.00000038    0.00000111
     atom   14 type  2   force =    -0.00000323   -0.00000059   -0.00000021
     atom   15 type  2   force =     0.00000308   -0.00000055   -0.00000019

     Total force =     0.000032     Total SCF correction =     0.000021
     SCF correction compared to forces is large: reduce conv_thr to get better values

     Computing stress (Cartesian axis) and pressure

     negative rho (up, down):  1.742E-03 0.000E+00
          total   stress  (Ry/bohr**3)                   (kbar)     P=   -0.12
  -0.00000116   0.00000000   0.00000000         -0.17      0.00      0.00
   0.00000000  -0.00000005  -0.00000001          0.00     -0.01     -0.00
   0.00000000  -0.00000001  -0.00000120          0.00     -0.00     -0.18

     kinetic stress (kbar)   1131.79     -0.00     -0.00
                               -0.00   1137.60     16.80
                               -0.00     16.80   1145.18

     local   stress (kbar)   1276.89     -0.13      0.26
                               -0.13 -58169.92   1770.23
                                0.26   1770.23  -5079.91

     nonloc. stress (kbar)    917.93      0.00     -0.00
                                0.00    921.91     -0.40
                               -0.00     -0.40    920.74

     hartree stress (kbar)   2329.24      0.05     -0.13
                                0.05  31562.23   -732.98
                               -0.13   -732.98   5566.27

     exc-cor stress (kbar)   1528.28      0.00      0.00
                                0.00   1528.55     -0.29
                                0.00     -0.29   1528.16

     corecor stress (kbar)  -2410.15      0.00      0.00
                                0.00  -2410.58     -0.45
                                0.00     -0.45  -2410.82

     ewald   stress (kbar)  -4774.14      0.07     -0.12
                                0.07  25430.19  -1052.92
                               -0.12  -1052.92  -1669.80

     hubbard stress (kbar)      0.00      0.00      0.00
                                0.00      0.00      0.00
                                0.00      0.00      0.00

     london  stress (kbar)      0.00      0.00      0.00
                                0.00      0.00      0.00
                                0.00      0.00      0.00

     DFT-D3  stress (kbar)      0.00      0.00      0.00
                                0.00      0.00      0.00
                                0.00      0.00      0.00

     XDM     stress (kbar)      0.00      0.00      0.00
                                0.00      0.00      0.00
                                0.00      0.00      0.00

     dft-nl  stress (kbar)      0.00      0.00      0.00
                                0.00      0.00      0.00
                                0.00      0.00      0.00

     TS-vdW  stress (kbar)      0.00      0.00      0.00
                                0.00      0.00      0.00
                                0.00      0.00      0.00

     Writing output data file NR.save/

     General routines

     Parallel routines

   This run was terminated on:   8:42:38  25Apr2021

   JOB DONE.