     Program PWSCF v.6.4.1 starts on  8Jun2022 at 17: 1:31

     K-points division:     npool     =       4
     R & G space division:  proc/nbgrp/npool/nimage =      16
     Waiting for input...
     Reading input from standard input

     Current dimensions of program PWSCF are:
     Max number of different atomic species (ntypx) = 10
     Max number of k-points (npk) =  40000
     Max angular momentum in pseudopotentials (lmaxx) =  3

     bravais-lattice index     =            0
     lattice parameter (alat)  =       6.1103  a.u.
     unit-cell volume          =     318.8455 (a.u.)^3
     number of atoms/cell      =            4
     number of atomic types    =            3
     number of electrons       =        42.00
     number of Kohn-Sham states=           21
     kinetic-energy cutoff     =      80.0000  Ry
     charge density cutoff     =     600.0000  Ry
     convergence threshold     =      1.0E-06
     mixing beta               =       0.5000
     number of iterations used =            8  plain     mixing
     Exchange-correlation      = SLA  PW   PSX  PSC ( 1  4 10  8 0 0)
     nstep                     =          200

     celldm(1)=   6.110292  celldm(2)=   0.000000  celldm(3)=   0.000000
     celldm(4)=   0.000000  celldm(5)=   0.000000  celldm(6)=   0.000000

     crystal axes: (cart. coord. in units of alat)
               a(1) = (   1.000000  -0.000000  -0.000000 )
               a(2) = (  -0.500000   0.866025  -0.000000 )
               a(3) = (  -0.000000  -0.000000   1.613853 )

     reciprocal axes: (cart. coord. in units 2 pi/alat)
               b(1) = (  1.000000  0.577350  0.000000 )
               b(2) = (  0.000000  1.154701  0.000000 )
               b(3) = (  0.000000  0.000000  0.619635 )

     PseudoPot. # 1 for Mg read from file:
     ./GBRV_PBEsol/mg_pbesol_v1.4.uspp.F.UPF
     MD5 check sum: 4059f37963cf5867752dbf5ab2400678
     Pseudo is Ultrasoft, Zval = 10.0
     Generated by new atomic code, or converted to UPF format
     Using radial grid of  821 points,  7 beta functions with:
                l(1) =   0
                l(2) =   0
                l(3) =   0
                l(4) =   1
                l(5) =   1
                l(6) =   2
                l(7) =   2
     Q(r) pseudized with  8 coefficients,  rinner =    1.200   1.200   1.200
                                                       1.200   1.200

     PseudoPot. # 2 for Zn read from file:
     ./GBRV_PBEsol/zn_pbesol_v1.uspp.F.UPF
     MD5 check sum: 7d8615e52efe7c1e2b1899de8658bae2
     Pseudo is Ultrasoft, Zval = 20.0
     Generated by new atomic code, or converted to UPF format
     Using radial grid of  943 points,  6 beta functions with:
                l(1) =   0
                l(2) =   0
                l(3) =   1
                l(4) =   1
                l(5) =   2
                l(6) =   2
     Q(r) pseudized with  8 coefficients,  rinner =    1.100   1.100   1.100
                                                       1.100   1.100

     PseudoPot. # 3 for O  read from file:
     ./GBRV_PBEsol/o_pbesol_v1.2.uspp.F.UPF
     MD5 check sum: 501638753501ef6325af9037351f7734
     Pseudo is Ultrasoft + core correction, Zval =  6.0
     Generated by new atomic code, or converted to UPF format
     Using radial grid of  737 points,  5 beta functions with:
                l(1) =   0
                l(2) =   0
                l(3) =   1
                l(4) =   1
                l(5) =   2
     Q(r) pseudized with  8 coefficients,  rinner =    0.900   0.900   0.900
                                                       0.900   0.900

     atomic species   valence    mass     pseudopotential
        Mg            10.00    24.30500     Mg( 1.00)
        Zn            20.00    65.38000     Zn( 1.00)
        O              6.00    15.99900     O ( 1.00)

     No symmetry found

                                    s                        frac. trans.

      isym =  1     identity

 cryst.   s( 1) = (     1          0          0      )
                  (     0          1          0      )
                  (     0          0          1      )

 cart.    s( 1) = (  1.0000000  0.0000000 -0.0000000 )
                  ( -0.0000000  1.0000000  0.0000000 )
                  ( -0.0000000 -0.0000000  1.0000000 )

   Cartesian axes

     site n.     atom                  positions (alat units)
         1           O   tau(   1) = (   0.5000001   0.2886754   0.0118550  )
         2           O   tau(   2) = (  -0.0000000   0.5773492   0.8187812  )
         3           Zn  tau(   3) = (   0.4999999   0.2886746   1.0070341  )
         4           Mg  tau(   4) = (  -0.0000004   0.5773508   1.8192612  )

   Crystallographic axes

     site n.     atom                  positions (cryst. coord.)
         1           O   tau(   1) = (  0.6666670  0.3333337  0.0073459  )
         2           O   tau(   2) = (  0.3333329  0.6666657  0.5073458  )
         3           Zn  tau(   3) = (  0.6666664  0.3333329  0.6239939  )
         4           Mg  tau(   4) = (  0.3333336  0.6666677  1.1272785  )

     number of k points=   260
                       cart. coord. in units 2pi/alat
        k(    1) = (   0.0000000   0.0000000   0.0000000), wk =   0.0039062
        k(    2) = (   0.0000000   0.0000000   0.0774544), wk =   0.0078125
        k(    3) = (   0.0000000   0.0000000   0.1549088), wk =   0.0078125
        k(    4) = (   0.0000000   0.0000000   0.2323632), wk =   0.0078125
        k(    5) = (  -0.0000000  -0.0000000  -0.3098176), wk =   0.0039062
        k(    6) = (   0.0000000   0.1443376   0.0000000), wk =   0.0078125
        k(    7) = (   0.0000000   0.1443376   0.0774544), wk =   0.0078125
        k(    8) = (   0.0000000   0.1443376   0.1549088), wk =   0.0078125
        k(    9) = (   0.0000000   0.1443376   0.2323633), wk =   0.0078125
        k(   10) = (  -0.0000000   0.1443375  -0.3098176), wk =   0.0078125
        k(   11) = (  -0.0000000   0.1443376  -0.2323632), wk =   0.0078125
        k(   12) = (  -0.0000000   0.1443376  -0.1549088), wk =   0.0078125
        k(   13) = (  -0.0000000   0.1443376  -0.0774544), wk =   0.0078125
        k(   14) = (   0.0000000   0.2886752   0.0000000), wk =   0.0078125
        k(   15) = (   0.0000000   0.2886752   0.0774545), wk =   0.0078125
        k(   16) = (   0.0000000   0.2886752   0.1549089), wk =   0.0078125
        k(   17) = (   0.0000000   0.2886752   0.2323633), wk =   0.0078125
        k(   18) = (  -0.0000000   0.2886751  -0.3098176), wk =   0.0078125
        k(   19) = (  -0.0000000   0.2886752  -0.2323632), wk =   0.0078125
        k(   20) = (  -0.0000000   0.2886752  -0.1549088), wk =   0.0078125
        k(   21) = (  -0.0000000   0.2886752  -0.0774544), wk =   0.0078125
        k(   22) = (   0.0000000   0.4330128   0.0000001), wk =   0.0078125
        k(   23) = (   0.0000000   0.4330128   0.0774545), wk =   0.0078125
        k(   24) = (   0.0000000   0.4330128   0.1549089), wk =   0.0078125
        k(   25) = (   0.0000000   0.4330128   0.2323633), wk =   0.0078125
        k(   26) = (  -0.0000000   0.4330127  -0.3098176), wk =   0.0078125
        k(   27) = (  -0.0000000   0.4330127  -0.2323632), wk =   0.0078125
        k(   28) = (  -0.0000000   0.4330128  -0.1549088), wk =   0.0078125
        k(   29) = (  -0.0000000   0.4330128  -0.0774543), wk =   0.0078125
        k(   30) = (  -0.0000000  -0.5773504  -0.0000001), wk =   0.0039062
        k(   31) = (  -0.0000000  -0.5773504   0.0774543), wk =   0.0078125
        k(   32) = (   0.0000000  -0.5773503   0.1549087), wk =   0.0078125
        k(   33) = (   0.0000000  -0.5773503   0.2323631), wk =   0.0078125
        k(   34) = (  -0.0000000  -0.5773504  -0.3098177), wk =   0.0039062
        k(   35) = (   0.1250000   0.0721688   0.0000000), wk =   0.0078125
        k(   36) = (   0.1250000   0.0721688   0.0774544), wk =   0.0078125
        k(   37) = (   0.1250000   0.0721688   0.1549088), wk =   0.0078125
        k(   38) = (   0.1250000   0.0721688   0.2323633), wk =   0.0078125
        k(   39) = (   0.1250000   0.0721688  -0.3098176), wk =   0.0078125
        k(   40) = (   0.1250000   0.0721688  -0.2323632), wk =   0.0078125
        k(   41) = (   0.1250000   0.0721688  -0.1549088), wk =   0.0078125
        k(   42) = (   0.1250000   0.0721688  -0.0774544), wk =   0.0078125
        k(   43) = (   0.1250000   0.2165064   0.0000000), wk =   0.0078125
        k(   44) = (   0.1250000   0.2165064   0.0774545), wk =   0.0078125
        k(   45) = (   0.1250000   0.2165064   0.1549089), wk =   0.0078125
        k(   46) = (   0.1250000   0.2165064   0.2323633), wk =   0.0078125
        k(   47) = (   0.1250000   0.2165063  -0.3098176), wk =   0.0078125
        k(   48) = (   0.1250000   0.2165064  -0.2323632), wk =   0.0078125
        k(   49) = (   0.1250000   0.2165064  -0.1549088), wk =   0.0078125
        k(   50) = (   0.1250000   0.2165064  -0.0774544), wk =   0.0078125
        k(   51) = (   0.1250000   0.3608440   0.0000001), wk =   0.0078125
        k(   52) = (   0.1250000   0.3608440   0.0774545), wk =   0.0078125
        k(   53) = (   0.1250000   0.3608440   0.1549089), wk =   0.0078125
        k(   54) = (   0.1250000   0.3608440   0.2323633), wk =   0.0078125
        k(   55) = (   0.1250000   0.3608439  -0.3098176), wk =   0.0078125
        k(   56) = (   0.1250000   0.3608440  -0.2323632), wk =   0.0078125
        k(   57) = (   0.1250000   0.3608440  -0.1549088), wk =   0.0078125
        k(   58) = (   0.1250000   0.3608440  -0.0774543), wk =   0.0078125
        k(   59) = (   0.1250000   0.5051816   0.0000001), wk =   0.0078125
        k(   60) = (   0.1250000   0.5051816   0.0774545), wk =   0.0078125
[...]
        k(  246) = (  -0.5000000  -0.0000000  -0.1549089), wk =   0.0078125
        k(  247) = (  -0.5000000  -0.0000000  -0.0774545), wk =   0.0078125
        k(  248) = (  -0.5000000   0.1443376  -0.0000000), wk =   0.0078125
        k(  249) = (  -0.5000000   0.1443376   0.0774544), wk =   0.0078125
        k(  250) = (  -0.5000000   0.1443376   0.1549088), wk =   0.0078125
        k(  251) = (  -0.5000000   0.1443376   0.2323632), wk =   0.0078125
        k(  252) = (  -0.5000000   0.1443375  -0.3098177), wk =   0.0078125
        k(  253) = (  -0.5000000   0.1443375  -0.2323633), wk =   0.0078125
        k(  254) = (  -0.5000000   0.1443376  -0.1549089), wk =   0.0078125
        k(  255) = (  -0.5000000   0.1443376  -0.0774544), wk =   0.0078125
        k(  256) = (  -0.5000000  -0.8660256  -0.0000002), wk =   0.0039062
        k(  257) = (  -0.5000000  -0.8660256   0.0774542), wk =   0.0078125
        k(  258) = (  -0.5000000  -0.8660255   0.1549086), wk =   0.0078125
        k(  259) = (  -0.5000000  -0.8660255   0.2323631), wk =   0.0078125
        k(  260) = (  -0.5000000  -0.8660256  -0.3098178), wk =   0.0039062

                       cryst. coord.
        k(    1) = (   0.0000000   0.0000000   0.0000000), wk =   0.0039062
        k(    2) = (  -0.0000000  -0.0000000   0.1250000), wk =   0.0078125
        k(    3) = (  -0.0000000  -0.0000000   0.2500000), wk =   0.0078125
[...]
        k(   23) = (   0.0000000   0.4302737   0.0782074), wk =   0.0078125
        k(   24) = (   0.0000000   0.4302737   0.1564147), wk =   0.0078125
        k(   25) = (   0.0000000   0.4302737   0.2346220), wk =   0.0078125
        k(   26) = (  -0.0000001   0.4302736  -0.3128291), wk =   0.0078125
        k(   27) = (  -0.0000000   0.4302736  -0.2346218), wk =   0.0078125
        k(   28) = (  -0.0000000   0.4302737  -0.1564145), wk =   0.0078125
        k(   29) = (  -0.0000000   0.4302737  -0.0782072), wk =   0.0078125
        k(   30) = (   0.0000000  -0.5736983  -0.0000001), wk =   0.0039062
        k(   31) = (   0.0000000  -0.5736982   0.0782072), wk =   0.0078125
        k(   32) = (   0.0000000  -0.5736982   0.1564145), wk =   0.0078125
        k(   33) = (   0.0000000  -0.5736982   0.2346218), wk =   0.0078125
        k(   34) = (  -0.0000000  -0.5736983  -0.3128294), wk =   0.0039062
        k(   35) = (   0.1242093   0.0717123   0.0000000), wk =   0.0078125
        k(   36) = (   0.1242094   0.0717123   0.0782073), wk =   0.0078125
        k(   37) = (   0.1242094   0.0717123   0.1564147), wk =   0.0078125
        k(   38) = (   0.1242094   0.0717123   0.2346220), wk =   0.0078125
        k(   39) = (   0.1242093   0.0717122  -0.3128292), wk =   0.0078125
        k(   40) = (   0.1242093   0.0717122  -0.2346219), wk =   0.0078125
        k(   41) = (   0.1242093   0.0717122  -0.1564146), wk =   0.0078125
        k(   42) = (   0.1242093   0.0717123  -0.0782073), wk =   0.0078125
        k(   43) = (   0.1242093   0.2151368   0.0000001), wk =   0.0078125
        k(   44) = (   0.1242093   0.2151369   0.0782074), wk =   0.0078125
        k(   45) = (   0.1242094   0.2151369   0.1564147), wk =   0.0078125
        k(   46) = (   0.1242094   0.2151369   0.2346220), wk =   0.0078125
        k(   47) = (   0.1242093   0.2151368  -0.3128292), wk =   0.0078125
        k(   48) = (   0.1242093   0.2151368  -0.2346219), wk =   0.0078125
        k(   49) = (   0.1242093   0.2151368  -0.1564145), wk =   0.0078125
        k(   50) = (   0.1242093   0.2151368  -0.0782072), wk =   0.0078125
        k(   51) = (   0.1242093   0.3585614   0.0000001), wk =   0.0078125
        k(   52) = (   0.1242093   0.3585614   0.0782074), wk =   0.0078125
        k(   53) = (   0.1242094   0.3585614   0.1564147), wk =   0.0078125
        k(   54) = (   0.1242094   0.3585615   0.2346220), wk =   0.0078125
        k(   55) = (   0.1242093   0.3585613  -0.3128291), wk =   0.0078125
        k(   56) = (   0.1242093   0.3585614  -0.2346218), wk =   0.0078125
        k(   57) = (   0.1242093   0.3585614  -0.1564145), wk =   0.0078125
        k(   58) = (   0.1242093   0.3585614  -0.0782072), wk =   0.0078125
        k(   59) = (   0.1242093   0.5019860   0.0000001), wk =   0.0078125
        k(   60) = (   0.1242093   0.5019860   0.0782074), wk =   0.0078125
[...]
        k(  246) = (  -0.4968374  -0.0000000  -0.1564147), wk =   0.0078125
        k(  247) = (  -0.4968374  -0.0000000  -0.0782074), wk =   0.0078125
        k(  248) = (  -0.4968374   0.1434246  -0.0000000), wk =   0.0078125
        k(  249) = (  -0.4968374   0.1434246   0.0782073), wk =   0.0078125
        k(  250) = (  -0.4968373   0.1434246   0.1564146), wk =   0.0078125
        k(  251) = (  -0.4968373   0.1434246   0.2346219), wk =   0.0078125
        k(  252) = (  -0.4968374   0.1434245  -0.3128293), wk =   0.0078125
        k(  253) = (  -0.4968374   0.1434245  -0.2346220), wk =   0.0078125
        k(  254) = (  -0.4968374   0.1434245  -0.1564147), wk =   0.0078125
        k(  255) = (  -0.4968374   0.1434246  -0.0782074), wk =   0.0078125
        k(  256) = (  -0.4968373  -0.8605474  -0.0000003), wk =   0.0039062
        k(  257) = (  -0.4968373  -0.8605474   0.0782070), wk =   0.0078125
        k(  258) = (  -0.4968373  -0.8605473   0.1564143), wk =   0.0078125
        k(  259) = (  -0.4968373  -0.8605473   0.2346216), wk =   0.0078125
        k(  260) = (  -0.4968374  -0.8605474  -0.3128295), wk =   0.0039062

                       cryst. coord.
        k(    1) = (   0.0000000   0.0000000   0.0000000), wk =   0.0039062
        k(    2) = (   0.0000000   0.0000000   0.1250000), wk =   0.0078125
        k(    3) = (   0.0000000   0.0000000   0.2500000), wk =   0.0078125
        k(    4) = (   0.0000000   0.0000000   0.3750000), wk =   0.0078125
        k(    5) = (  -0.0000000  -0.0000000  -0.5000000), wk =   0.0039062
        k(    6) = (  -0.0000000   0.1250000   0.0000000), wk =   0.0078125
        k(    7) = (   0.0000000   0.1250000   0.1250000), wk =   0.0078125
        k(    8) = (   0.0000000   0.1250000   0.2500000), wk =   0.0078125
        k(    9) = (   0.0000000   0.1250000   0.3750000), wk =   0.0078125
        k(   10) = (  -0.0000000   0.1250000  -0.5000000), wk =   0.0078125
        k(   11) = (  -0.0000000   0.1250000  -0.3750000), wk =   0.0078125
        k(   12) = (  -0.0000000   0.1250000  -0.2500000), wk =   0.0078125
        k(   13) = (  -0.0000000   0.1250000  -0.1250000), wk =   0.0078125
        k(   14) = (  -0.0000000   0.2500000   0.0000000), wk =   0.0078125
        k(   15) = (   0.0000000   0.2500000   0.1250000), wk =   0.0078125
        k(   16) = (   0.0000000   0.2500000   0.2500000), wk =   0.0078125
        k(   17) = (   0.0000000   0.2500000   0.3750000), wk =   0.0078125
        k(   18) = (  -0.0000000   0.2500000  -0.5000000), wk =   0.0078125
        k(   19) = (  -0.0000000   0.2500000  -0.3750000), wk =   0.0078125
        k(   20) = (  -0.0000000   0.2500000  -0.2500000), wk =   0.0078125
        k(   21) = (  -0.0000000   0.2500000  -0.1250000), wk =   0.0078125
        k(   22) = (  -0.0000000   0.3750000   0.0000000), wk =   0.0078125
        k(   23) = (   0.0000000   0.3750000   0.1250000), wk =   0.0078125
        k(   24) = (   0.0000000   0.3750000   0.2500000), wk =   0.0078125
        k(   25) = (   0.0000000   0.3750000   0.3750000), wk =   0.0078125
        k(   26) = (  -0.0000000   0.3750000  -0.5000000), wk =   0.0078125
        k(   27) = (  -0.0000000   0.3750000  -0.3750000), wk =   0.0078125
        k(   28) = (  -0.0000000   0.3750000  -0.2500000), wk =   0.0078125
        k(   29) = (  -0.0000000   0.3750000  -0.1250000), wk =   0.0078125
        k(   30) = (   0.0000000  -0.5000000  -0.0000000), wk =   0.0039062
        k(   31) = (  -0.0000000  -0.5000000   0.1250000), wk =   0.0078125
        k(   32) = (   0.0000000  -0.5000000   0.2500000), wk =   0.0078125
        k(   33) = (   0.0000000  -0.5000000   0.3750000), wk =   0.0078125
        k(   34) = (  -0.0000000  -0.5000000  -0.5000000), wk =   0.0039062
        k(   35) = (   0.1250000  -0.0000000  -0.0000000), wk =   0.0078125
        k(   36) = (   0.1250000  -0.0000000   0.1250000), wk =   0.0078125
        k(   37) = (   0.1250000  -0.0000000   0.2500000), wk =   0.0078125
        k(   38) = (   0.1250000  -0.0000000   0.3750000), wk =   0.0078125
        k(   39) = (   0.1250000  -0.0000000  -0.5000000), wk =   0.0078125
        k(   40) = (   0.1250000  -0.0000000  -0.3750000), wk =   0.0078125
        k(   41) = (   0.1250000  -0.0000000  -0.2500000), wk =   0.0078125
        k(   42) = (   0.1250000  -0.0000000  -0.1250000), wk =   0.0078125
        k(   43) = (   0.1250000   0.1250000  -0.0000000), wk =   0.0078125
        k(   44) = (   0.1250000   0.1250000   0.1250000), wk =   0.0078125
        k(   45) = (   0.1250000   0.1250000   0.2500000), wk =   0.0078125
        k(   46) = (   0.1250000   0.1250000   0.3750000), wk =   0.0078125
        k(   47) = (   0.1250000   0.1250000  -0.5000000), wk =   0.0078125
        k(   48) = (   0.1250000   0.1250000  -0.3750000), wk =   0.0078125
        k(   49) = (   0.1250000   0.1250000  -0.2500000), wk =   0.0078125
        k(   50) = (   0.1250000   0.1250000  -0.1250000), wk =   0.0078125
        k(   51) = (   0.1250000   0.2500000   0.0000000), wk =   0.0078125
        k(   52) = (   0.1250000   0.2500000   0.1250000), wk =   0.0078125
        k(   53) = (   0.1250000   0.2500000   0.2500000), wk =   0.0078125
        k(   54) = (   0.1250000   0.2500000   0.3750000), wk =   0.0078125
        k(   55) = (   0.1250000   0.2500000  -0.5000000), wk =   0.0078125
        k(   56) = (   0.1250000   0.2500000  -0.3750000), wk =   0.0078125
        k(   57) = (   0.1250000   0.2500000  -0.2500000), wk =   0.0078125
        k(   58) = (   0.1250000   0.2500000  -0.1250000), wk =   0.0078125
        k(   59) = (   0.1250000   0.3750000  -0.0000000), wk =   0.0078125
        k(   60) = (   0.1250000   0.3750000   0.1250000), wk =   0.0078125
[...]
        k(  246) = (  -0.5000000   0.2500000  -0.2500000), wk =   0.0078125
        k(  247) = (  -0.5000000   0.2500000  -0.1250000), wk =   0.0078125
        k(  248) = (  -0.5000000   0.3750000   0.0000000), wk =   0.0078125
        k(  249) = (  -0.5000000   0.3750000   0.1250000), wk =   0.0078125
        k(  250) = (  -0.5000000   0.3750000   0.2500000), wk =   0.0078125
        k(  251) = (  -0.5000000   0.3750000   0.3750000), wk =   0.0078125
        k(  252) = (  -0.5000000   0.3750000  -0.5000000), wk =   0.0078125
        k(  253) = (  -0.5000000   0.3750000  -0.3750000), wk =   0.0078125
        k(  254) = (  -0.5000000   0.3750000  -0.2500000), wk =   0.0078125
        k(  255) = (  -0.5000000   0.3750000  -0.1250000), wk =   0.0078125
        k(  256) = (  -0.5000000  -0.5000000   0.0000000), wk =   0.0039062
        k(  257) = (  -0.5000000  -0.5000000   0.1250000), wk =   0.0078125
        k(  258) = (  -0.5000000  -0.5000000   0.2500000), wk =   0.0078125
        k(  259) = (  -0.5000000  -0.5000000   0.3750000), wk =   0.0078125
        k(  260) = (  -0.5000000  -0.5000000  -0.5000000), wk =   0.0039062

     Check: negative core charge=   -0.000003

     Initial potential from superposition of free atoms

     starting charge   41.69964, renormalised to   42.00000
     Starting wfcs are   26 randomized atomic wfcs

     Self-consistent Calculation

[...]

     total energy              =    -651.13014427 Ry
     Harris-Foulkes estimate   =    -651.13014428 Ry
     estimated scf accuracy    <       0.00000006 Ry

     iteration # 10     ecut=    80.00 Ry     beta= 0.50
     Davidson diagonalization with overlap
     ethr =  1.48E-10,  avg # of iterations =  2.0

     End of self-consistent calculation

[...]

          k = 0.3726 0.0717-0.0782 (  3860 PWs)   bands (ev):

[...]

          k =-0.4968-0.8605-0.3128 (  3868 PWs)   bands (ev):

  -115.9049 -70.2668 -70.2620 -70.2604 -65.2832 -32.2861 -32.2728 -32.2617
    -9.8491  -9.2537   1.3137   1.9913   2.0265   2.3180   2.7803   2.8271
     3.9186   5.1475   5.1821   5.8142   6.0699

     occupation numbers
     1.0000   1.0000   1.0000   1.0000   1.0000   1.0000   1.0000   1.0000
     1.0000   1.0000   1.0000   1.0000   1.0000   1.0000   1.0000   1.0000
     1.0000   1.0000   1.0000   1.0000   1.0000

     highest occupied level (ev):     6.8354

!    total energy              =    -651.13014428 Ry
     Harris-Foulkes estimate   =    -651.13014428 Ry
     estimated scf accuracy    <          5.7E-10 Ry

     The total energy is the sum of the following terms:

     one-electron contribution =    -539.47114237 Ry
     hartree contribution      =     282.96059323 Ry
     xc contribution           =     -73.06975114 Ry
     ewald contribution        =    -321.54984400 Ry

     convergence has been achieved in  10 iterations

     Forces acting on atoms (cartesian axes, Ry/au):

     atom    1 type  3   force =    -0.00000093   -0.00000070    0.00954051
     atom    2 type  3   force =     0.00000002    0.00000029   -0.00153217
     atom    3 type  2   force =    -0.00000019    0.00000038    0.01219005
     atom    4 type  1   force =     0.00000110    0.00000003   -0.02019839
     The non-local contrib.  to forces
     atom    1 type  3   force =    -0.00000008   -0.00000076   -0.12479375
     atom    2 type  3   force =     0.00000047    0.00000053    0.10695695
     atom    3 type  2   force =     0.00000127   -0.00000381   -0.13140556
     atom    4 type  1   force =     0.00000147    0.00000065   -0.00401939
     The ionic contribution  to forces
     atom    1 type  3   force =    -0.00000913    0.00001633    6.98689168
     atom    2 type  3   force =    -0.00000903    0.00001306   -6.58764235
     atom    3 type  2   force =     0.00000811   -0.00002848    0.25251868
     atom    4 type  1   force =     0.00001005   -0.00000091   -0.65176801
     The local contribution  to forces
     atom    1 type  3   force =     0.00000828   -0.00001622   -6.85391717
     atom    2 type  3   force =     0.00000858   -0.00001331    6.48057657
     atom    3 type  2   force =    -0.00000957    0.00003270   -0.10896389
     atom    4 type  1   force =    -0.00001041    0.00000026    0.63556939
     The core correction contribution to forces
     atom    1 type  3   force =    -0.00000000   -0.00000001    0.00137712
     atom    2 type  3   force =    -0.00000000   -0.00000001   -0.00141028
     atom    3 type  2   force =     0.00000000    0.00000000    0.00000000
     atom    4 type  1   force =     0.00000000    0.00000000    0.00000000
     The Hubbard contrib.    to forces
     atom    1 type  3   force =     0.00000000    0.00000000    0.00000000
     atom    2 type  3   force =     0.00000000    0.00000000    0.00000000
     atom    3 type  2   force =     0.00000000    0.00000000    0.00000000
     atom    4 type  1   force =     0.00000000    0.00000000    0.00000000
     The SCF correction term to forces
     atom    1 type  3   force =     0.00000000    0.00000000    0.00000000
     atom    2 type  3   force =     0.00000000    0.00000000    0.00000000
     atom    3 type  2   force =     0.00000000    0.00000000    0.00000000
     atom    4 type  1   force =     0.00000000    0.00000000    0.00000000

     Total force =     0.000000     Total SCF correction =     0.000000

     Computing stress (Cartesian axis) and pressure

          total   stress  (Ry/bohr**3)                   (kbar)     P=    1.50
   0.00001215   0.00000000   0.00000001          1.79      0.00      0.00
   0.00000000   0.00001214   0.00000000          0.00      1.79      0.00
   0.00000001   0.00000000   0.00000631          0.00      0.00      0.93

     kinetic stress (kbar)  26392.91      0.00      0.00
                                0.00  26392.91      0.00
                                0.00      0.00  26415.77

     local   stress (kbar) -18763.79     -0.01     -0.01
                               -0.01 -18763.76      0.06
                               -0.01      0.06   2826.76

     nonloc. stress (kbar)   1768.37      0.00     -0.00
                                0.00   1768.37     -0.00
                               -0.00     -0.00   1758.07

     hartree stress (kbar)  46881.94      0.00      0.00
                                0.00  46881.93     -0.02
                                0.00     -0.02  36391.71

     exc-cor stress (kbar) -10431.68      0.00     -0.00
                                0.00 -10431.68     -0.00
                               -0.00     -0.00 -10431.63

     corecor stress (kbar)   -248.61     -0.00     -0.00
                               -0.00   -248.61      0.00
                               -0.00      0.00   -248.68

     ewald   stress (kbar) -45597.34      0.01      0.01
                                0.01 -45597.35     -0.03
                                0.01     -0.03 -56711.08

     hubbard stress (kbar)      0.00      0.00      0.00
                                0.00      0.00      0.00
                                0.00      0.00      0.00

     london  stress (kbar)      0.00      0.00      0.00
                                0.00      0.00      0.00
                                0.00      0.00      0.00

     DFT-D3  stress (kbar)      0.00      0.00      0.00
                                0.00      0.00      0.00
                                0.00      0.00      0.00

     XDM     stress (kbar)      0.00      0.00      0.00
                                0.00      0.00      0.00
                                0.00      0.00      0.00

     dft-nl  stress (kbar)      0.00      0.00      0.00
                                0.00      0.00      0.00
                                0.00      0.00      0.00

     TS-vdW  stress (kbar)      0.00      0.00      0.00
                                0.00      0.00      0.00
                                0.00      0.00      0.00

     Writing output data file ZnO.save/

     General routines

     Parallel routines

   This run was terminated on:  17: 2:44   8Jun2022

   JOB DONE.