     Program PWSCF v.6.4.1 starts on  8Nov2021 at 19:33:37

     K-points division:     npool     =       8
     R & G space division:  proc/nbgrp/npool/nimage =      16
     Waiting for input...
     Reading input from standard input
Warning: card &CELL ignored
Warning: card   CELL_DYNAMICS     = 'BFGS' ignored
Warning: card   PRESS_CONV_THR    = 0.5D0 ignored
Warning: card   CELL_DOFREE = 'Z' ignored
Warning: card / ignored

     Current dimensions of program PWSCF are:
     Max number of different atomic species (ntypx) = 10
     Max number of k-points (npk) =  40000
     Max angular momentum in pseudopotentials (lmaxx) =  3

     bravais-lattice index     =            0
     lattice parameter (alat)  =      18.4226  a.u.
     unit-cell volume          =    5210.4206 (a.u.)^3
     number of atoms/cell      =           72
     number of atomic types    =            3
     number of electrons       =       816.00
     number of Kohn-Sham states=          490
     kinetic-energy cutoff     =      60.0000  Ry
     charge density cutoff     =     500.0000  Ry
     convergence threshold     =      1.0E-08
     mixing beta               =       0.5000
     number of iterations used =            8  plain     mixing
     Exchange-correlation      = SLA  PW   PSX  PSC ( 1  4 10  8 0 0)
     nstep                     =          200

     celldm(1)=  18.422634  celldm(2)=   0.000000  celldm(3)=   0.000000
     celldm(4)=   0.000000  celldm(5)=   0.000000  celldm(6)=   0.000000

     crystal axes: (cart. coord. in units of alat)
               a(1) = (   1.000000  -0.000928  -0.000024 )
               a(2) = (  -0.500802   0.866030   0.000209 )
               a(3) = (  -0.000032   0.000301   0.962760 )

     reciprocal axes: (cart. coord. in units 2 pi/alat)
               b(1) = (  1.000537  0.578584 -0.000148 )
               b(2) = (  0.001072  1.155315 -0.000362 )
               b(3) = (  0.000025 -0.000237  1.038681 )

     PseudoPot. # 1 for Zn read from file:
     ./GBRV_PBEsol/zn_pbesol_v1.uspp.F.UPF
     MD5 check sum: 7d8615e52efe7c1e2b1899de8658bae2
     Pseudo is Ultrasoft, Zval = 20.0
     Generated by new atomic code, or converted to UPF format
     Using radial grid of  943 points,  6 beta functions with:
                l(1) =   0
                l(2) =   0
                l(3) =   1
                l(4) =   1
                l(5) =   2
                l(6) =   2
     Q(r) pseudized with  8 coefficients,  rinner =    1.100   1.100   1.100
                                                       1.100   1.100

     PseudoPot. # 2 for O  read from file:
     ./GBRV_PBEsol/o_pbesol_v1.2.uspp.F.UPF
     MD5 check sum: 501638753501ef6325af9037351f7734
     Pseudo is Ultrasoft + core correction, Zval =  6.0
     Generated by new atomic code, or converted to UPF format
     Using radial grid of  737 points,  5 beta functions with:
                l(1) =   0
                l(2) =   0
                l(3) =   1
                l(4) =   1
                l(5) =   2
     Q(r) pseudized with  8 coefficients,  rinner =    0.900   0.900   0.900
                                                       0.900   0.900

     PseudoPot. # 3 for Mg read from file:
     ./GBRV_PBEsol/mg_pbesol_v1.4.uspp.F.UPF
     MD5 check sum: 4059f37963cf5867752dbf5ab2400678
     Pseudo is Ultrasoft, Zval = 10.0
     Generated by new atomic code, or converted to UPF format
     Using radial grid of  821 points,  7 beta functions with:
                l(1) =   0
                l(2) =   0
                l(3) =   0
                l(4) =   1
                l(5) =   1
                l(6) =   2
                l(7) =   2
     Q(r) pseudized with  8 coefficients,  rinner =    1.200   1.200   1.200
                                                       1.200   1.200

     atomic species   valence    mass     pseudopotential
        Zn            20.00    65.38000     Zn( 1.00)
        O              6.00    15.99900     O ( 1.00)
        Mg            10.00    24.30500     Mg( 1.00)

     No symmetry found

                                    s                        frac. trans.

      isym =  1     identity

 cryst.   s( 1) = (     1          0          0      )
                  (     0          1          0      )
                  (     0          0          1      )

 cart.    s( 1) = (  1.0000000 -0.0000000  0.0000000 )
                  (  0.0000000  1.0000000 -0.0000000 )
                  (  0.0000000  0.0000000  1.0000000 )

   Cartesian axes

     site n.     atom                  positions (alat units)
         1           Zn  tau(   1) = (   0.1661607   0.0987153   0.2443323  )
         2           Zn  tau(   2) = (   0.1659318   0.0985437   0.7245942  )
         3           Zn  tau(   3) = (  -0.0014346   0.3853631   0.2414198  )
         4           Zn  tau(   4) = (  -0.0019288   0.3855443   0.7277427  )
         5           Zn  tau(   5) = (  -0.1685337   0.6770481   0.2436560  )
         6           Zn  tau(   6) = (  -0.1689052   0.6761385   0.7243709  )
         7           Zn  tau(   7) = (   0.5013081   0.0963943   0.2440604  )
         8           Zn  tau(   8) = (   0.5023490   0.0958950   0.7260092  )
         9           Zn  tau(   9) = (   0.3342636   0.3831475   0.2430449  )
        10           Mg  tau(  10) = (   0.3354376   0.3822686   0.7248681  )
        11           Mg  tau(  11) = (   0.1655478   0.6730284   0.2468216  )
        12           Zn  tau(  12) = (   0.1661455   0.6714091   0.7231833  )
        13           Zn  tau(  13) = (   0.8334469   0.0928456   0.2434556  )
        14           Mg  tau(  14) = (   0.8327417   0.0934306   0.7250114  )
        15           Zn  tau(  15) = (   0.6666346   0.3837269   0.2429911  )
        16           Mg  tau(  16) = (   0.6662304   0.3842832   0.7233317  )
        17           Mg  tau(  17) = (   0.4980376   0.6716572   0.2422593  )
        18           Mg  tau(  18) = (   0.4973658   0.6708021   0.7242407  )
        19           Zn  tau(  19) = (  -0.0011388   0.1942407   0.4838388  )
        20           Zn  tau(  20) = (  -0.0004760   0.1944346   0.0028057  )
        21           Zn  tau(  21) = (  -0.1662478   0.4849747   0.4838655  )
        22           Mg  tau(  22) = (  -0.1665316   0.4837176   0.0020657  )
        23           Mg  tau(  23) = (  -0.3348857   0.7720837   0.4837439  )
        24           Mg  tau(  24) = (  -0.3337201   0.7730682   0.0038494  )
        25           Zn  tau(  25) = (   0.3346490   0.1911195   0.4850445  )
        26           Zn  tau(  26) = (   0.3345896   0.1908598   0.0011458  )
        27           Mg  tau(  27) = (   0.1657818   0.4782393   0.4862658  )
        28           Mg  tau(  28) = (   0.1667487   0.4784024   0.0038688  )
        29           Mg  tau(  29) = (  -0.0008464   0.7700852   0.4817635  )
        30           Zn  tau(  30) = (  -0.0006304   0.7682898   0.0016597  )
        31           Zn  tau(  31) = (   0.6674522   0.1922459   0.4863137  )
        32           Zn  tau(  32) = (   0.6674904   0.1921951   0.0018625  )
        33           Zn  tau(  33) = (   0.4996312   0.4793347   0.4854725  )
        34           Zn  tau(  34) = (   0.5005831   0.4790831   0.0020328  )
        35           Zn  tau(  35) = (   0.3307176   0.7665339   0.4840462  )
        36           Zn  tau(  36) = (   0.3312206   0.7669944   0.0035709  )
        37           O   tau(  37) = (   0.1659861   0.0985123   0.0034219  )
        38           O   tau(  38) = (   0.1658990   0.0981687   0.4838129  )
        39           O   tau(  39) = (  -0.0012411   0.3862489   0.0028494  )
        40           O   tau(  40) = (  -0.0022425   0.3860434   0.4838397  )
        41           O   tau(  41) = (  -0.1686485   0.6759326   0.0021098  )
        42           O   tau(  42) = (  -0.1688028   0.6764835   0.4837181  )
        43           O   tau(  43) = (   0.5014461   0.0947367   0.0036754  )
        44           O   tau(  44) = (   0.5013393   0.0961104   0.4850185  )
        45           O   tau(  45) = (   0.3336661   0.3837060   0.0011899  )
        46           O   tau(  46) = (   0.3327922   0.3837894   0.4862405  )
        47           O   tau(  47) = (   0.1648923   0.6706607   0.0039124  )
        48           O   tau(  48) = (   0.1640764   0.6704892   0.4817371  )
        49           O   tau(  49) = (   0.8338779   0.0939790   0.0014865  )
        50           O   tau(  50) = (   0.8334103   0.0935499   0.4862875  )
        51           O   tau(  51) = (   0.6679582   0.3844935   0.0019064  )
        52           O   tau(  52) = (   0.6680490   0.3850544   0.4854469  )
        53           O   tau(  53) = (   0.5005241   0.6728368   0.0020767  )
        54           O   tau(  54) = (   0.4995887   0.6727270   0.4840202  )
        55           O   tau(  55) = (  -0.0016735   0.1930409   0.2443582  )
        56           O   tau(  56) = (  -0.0015974   0.1929977   0.7246202  )
        57           O   tau(  57) = (  -0.1675793   0.4836931   0.2414459  )
        58           O   tau(  58) = (  -0.1677969   0.4832903   0.7277681  )
        59           O   tau(  59) = (  -0.3367406   0.7712429   0.2436811  )
        60           O   tau(  60) = (  -0.3370629   0.7710232   0.7243970  )
        61           O   tau(  61) = (   0.3342640   0.1913903   0.2440867  )
        62           O   tau(  62) = (   0.3345979   0.1900635   0.7260347  )
        63           O   tau(  63) = (   0.1672037   0.4799430   0.2430712  )
        64           O   tau(  64) = (   0.1677280   0.4783282   0.7248942  )
        65           O   tau(  65) = (  -0.0002860   0.7697869   0.2468470  )
        66           O   tau(  66) = (   0.0000422   0.7687974   0.7232093  )
        67           O   tau(  67) = (   0.6684655   0.1918058   0.2434814  )
        68           O   tau(  68) = (   0.6682457   0.1923743   0.7250375  )
        69           O   tau(  69) = (   0.5002315   0.4797587   0.2430173  )
        70           O   tau(  70) = (   0.5002680   0.4797074   0.7233575  )
        71           O   tau(  71) = (   0.3322694   0.7674333   0.2422851  )
        72           O   tau(  72) = (   0.3319033   0.7675261   0.7242667  )

   Crystallographic axes

     site n.     atom                  positions (cryst. coord.)
         1           Zn  tau(   1) = (  0.2233290  0.1141370  0.2537640  )
         2           Zn  tau(   2) = (  0.2229298  0.1137647  0.7526026  )
         3           Zn  tau(   3) = (  0.2214938  0.4451267  0.2506667  )
         4           Zn  tau(   4) = (  0.2210324  0.4451596  0.7558009  )
         5           Zn  tau(   5) = (  0.2230689  0.7819347  0.2529163  )
         6           Zn  tau(   6) = (  0.2221000  0.7807095  0.7522257  )
         7           Zn  tau(   7) = (  0.5573137  0.1118150  0.2534903  )
         8           Zn  tau(   8) = (  0.5579951  0.1110649  0.7540813  )
         9           Zn  tau(   9) = (  0.5560904  0.4429263  0.2523635  )
        10           Mg  tau(  10) = (  0.5566853  0.4417380  0.7528241  )
        11           Mg  tau(  11) = (  0.5550038  0.7776478  0.2562135  )
        12           Zn  tau(  12) = (  0.5545945  0.7756053  0.7510015  )
[...]
     atom   27 type  3   force =     0.00000000    0.00000000    0.00000000
     atom   28 type  3   force =     0.00000000    0.00000000    0.00000000
     atom   29 type  3   force =     0.00000000    0.00000000    0.00000000
     atom   30 type  1   force =     0.00000000    0.00000000    0.00000000
     atom   31 type  1   force =     0.00000000    0.00000000    0.00000000
     atom   32 type  1   force =     0.00000000    0.00000000    0.00000000
     atom   33 type  1   force =     0.00000000    0.00000000    0.00000000
     atom   34 type  1   force =     0.00000000    0.00000000    0.00000000
     atom   35 type  1   force =     0.00000000    0.00000000    0.00000000
     atom   36 type  1   force =     0.00000000    0.00000000    0.00000000
     atom   37 type  2   force =     0.00000000    0.00000000    0.00000000
     atom   38 type  2   force =     0.00000000    0.00000000    0.00000000
     atom   39 type  2   force =     0.00000000    0.00000000    0.00000000
     atom   40 type  2   force =     0.00000000    0.00000000    0.00000000
     atom   41 type  2   force =     0.00000000    0.00000000    0.00000000
     atom   42 type  2   force =     0.00000000    0.00000000    0.00000000
     atom   43 type  2   force =     0.00000000    0.00000000    0.00000000
     atom   44 type  2   force =     0.00000000    0.00000000    0.00000000
     atom   45 type  2   force =     0.00000000    0.00000000    0.00000000
     atom   46 type  2   force =     0.00000000    0.00000000    0.00000000
     atom   47 type  2   force =     0.00000000    0.00000000    0.00000000
     atom   48 type  2   force =     0.00000000    0.00000000    0.00000000
     atom   49 type  2   force =     0.00000000    0.00000000    0.00000000
     atom   50 type  2   force =     0.00000000    0.00000000    0.00000000
     atom   51 type  2   force =     0.00000000    0.00000000    0.00000000
     atom   52 type  2   force =     0.00000000    0.00000000    0.00000000
     atom   53 type  2   force =     0.00000000    0.00000000    0.00000000
     atom   54 type  2   force =     0.00000000    0.00000000    0.00000000
     atom   55 type  2   force =     0.00000000    0.00000000    0.00000000
     atom   56 type  2   force =     0.00000000    0.00000000    0.00000000
     atom   57 type  2   force =     0.00000000    0.00000000    0.00000000
     atom   58 type  2   force =     0.00000000    0.00000000    0.00000000
     atom   59 type  2   force =     0.00000000    0.00000000    0.00000000
     atom   60 type  2   force =     0.00000000    0.00000000    0.00000000
     atom   61 type  2   force =     0.00000000    0.00000000    0.00000000
     atom   62 type  2   force =     0.00000000    0.00000000    0.00000000
     atom   63 type  2   force =     0.00000000    0.00000000    0.00000000
     atom   64 type  2   force =     0.00000000    0.00000000    0.00000000
     atom   65 type  2   force =     0.00000000    0.00000000    0.00000000
     atom   66 type  2   force =     0.00000000    0.00000000    0.00000000
     atom   67 type  2   force =     0.00000000    0.00000000    0.00000000
     atom   68 type  2   force =     0.00000000    0.00000000    0.00000000
     atom   69 type  2   force =     0.00000000    0.00000000    0.00000000
     atom   70 type  2   force =     0.00000000    0.00000000    0.00000000
     atom   71 type  2   force =     0.00000000    0.00000000    0.00000000
     atom   72 type  2   force =     0.00000000    0.00000000    0.00000000
     The SCF correction term to forces
     atom    1 type  1   force =    -0.00000164   -0.00002248    0.00000000
     atom    2 type  1   force =    -0.00000548    0.00000331    0.00000000
     atom    3 type  1   force =    -0.00000894    0.00001475    0.00000000
     atom    4 type  1   force =     0.00000478    0.00000529    0.00000000
     atom    5 type  1   force =    -0.00000528   -0.00000142    0.00000000
     atom    6 type  1   force =     0.00001363    0.00000203    0.00000000
     atom    7 type  1   force =     0.00000240   -0.00001778    0.00000000
     atom    8 type  1   force =     0.00000742   -0.00001391    0.00000000
     atom    9 type  1   force =     0.00001284    0.00001916    0.00000000
     atom   10 type  3   force =    -0.00000396    0.00000669    0.00000000
     atom   11 type  3   force =     0.00000509    0.00000659    0.00000000
     atom   12 type  1   force =     0.00000731    0.00000628    0.00000000
     atom   13 type  1   force =    -0.00000114   -0.00002759    0.00000000
     atom   14 type  3   force =    -0.00000173   -0.00001031    0.00000000
     atom   15 type  1   force =    -0.00000374    0.00002193    0.00000000
     atom   16 type  3   force =     0.00000197    0.00000081    0.00000000
     atom   17 type  3   force =    -0.00000215   -0.00000039    0.00000000
     atom   18 type  3   force =    -0.00000872    0.00000480    0.00000000
     atom   19 type  1   force =    -0.00000300   -0.00001454    0.00000000
     atom   20 type  1   force =    -0.00000155   -0.00001710    0.00000000
     atom   21 type  1   force =     0.00000599    0.00000298    0.00000000
     atom   22 type  3   force =     0.00000030   -0.00000073    0.00000000
     atom   23 type  3   force =    -0.00000439    0.00000368    0.00000000
     atom   24 type  3   force =    -0.00000104    0.00000759    0.00000000
     atom   25 type  1   force =     0.00000282   -0.00001684    0.00000000
     atom   26 type  1   force =     0.00001804   -0.00002171    0.00000000
     atom   27 type  3   force =    -0.00000181    0.00000599    0.00000000
     atom   28 type  3   force =     0.00000084    0.00000386    0.00000000
     atom   29 type  3   force =     0.00000397    0.00000703    0.00000000
     atom   30 type  1   force =     0.00000941    0.00003465    0.00000000
     atom   31 type  1   force =     0.00000115   -0.00002418    0.00000000
     atom   32 type  1   force =    -0.00001505   -0.00002892    0.00000000
     atom   33 type  1   force =    -0.00000480    0.00001468    0.00000000
     atom   34 type  1   force =    -0.00000374   -0.00000196    0.00000000
     atom   35 type  1   force =     0.00000122    0.00000815    0.00000000
     atom   36 type  1   force =    -0.00000817    0.00001398    0.00000000
     atom   37 type  2   force =    -0.00000096   -0.00000442    0.00000000
     atom   38 type  2   force =    -0.00000362   -0.00000653    0.00000000
     atom   39 type  2   force =    -0.00000100    0.00000371    0.00000000
     atom   40 type  2   force =     0.00000210    0.00000254    0.00000000
     atom   41 type  2   force =     0.00000061    0.00000119    0.00000000
     atom   42 type  2   force =     0.00000091    0.00000432    0.00000000
     atom   43 type  2   force =     0.00000408   -0.00000431    0.00000000
     atom   44 type  2   force =     0.00000355   -0.00000795    0.00000000
     atom   45 type  2   force =    -0.00000020    0.00000342    0.00000000
     atom   46 type  2   force =    -0.00000263    0.00000645    0.00000000
     atom   47 type  2   force =     0.00000347    0.00000486    0.00000000
     atom   48 type  2   force =     0.00000072    0.00000259    0.00000000
     atom   49 type  2   force =    -0.00000349   -0.00000741    0.00000000
     atom   50 type  2   force =    -0.00000009   -0.00000660    0.00000000
     atom   51 type  2   force =     0.00000126   -0.00000055    0.00000000
     atom   52 type  2   force =     0.00000077    0.00000127    0.00000000
     atom   53 type  2   force =    -0.00000363    0.00000465    0.00000000
     atom   54 type  2   force =    -0.00000176    0.00000466    0.00000000
     atom   55 type  2   force =    -0.00000105   -0.00000042    0.00000000
     atom   56 type  2   force =    -0.00000373   -0.00000090    0.00000000
     atom   57 type  2   force =     0.00000213    0.00000297    0.00000000
     atom   58 type  2   force =     0.00000155    0.00000124    0.00000000
     atom   59 type  2   force =    -0.00000187   -0.00000304    0.00000000
     atom   60 type  2   force =    -0.00000160   -0.00000301    0.00000000
     atom   61 type  2   force =     0.00000082   -0.00000373    0.00000000
     atom   62 type  2   force =    -0.00000179    0.00000220    0.00000000
     atom   63 type  2   force =    -0.00000287    0.00000579    0.00000000
     atom   64 type  2   force =    -0.00000041    0.00000168    0.00000000
     atom   65 type  2   force =     0.00000202   -0.00000165    0.00000000
     atom   66 type  2   force =     0.00000053   -0.00000411    0.00000000
     atom   67 type  2   force =     0.00000028   -0.00000370    0.00000000
     atom   68 type  2   force =     0.00000592   -0.00000229    0.00000000
     atom   69 type  2   force =     0.00000070    0.00000701    0.00000000
     atom   70 type  2   force =    -0.00000168    0.00000266    0.00000000
     atom   71 type  2   force =     0.00000025   -0.00000244    0.00000000
     atom   72 type  2   force =    -0.00000065    0.00000184    0.00000000

     Total force =     0.000071     Total SCF correction =     0.000100
     SCF correction compared to forces is large: reduce conv_thr to get better values

     Computing stress (Cartesian axis) and pressure

          total   stress  (Ry/bohr**3)                   (kbar)     P=  143.59
   0.00146221  -0.00000224  -0.00000015        215.10     -0.33     -0.02
  -0.00000224   0.00145669   0.00000017         -0.33    214.29      0.02
  -0.00000015   0.00000017   0.00000935         -0.02      0.02      1.38

     kinetic stress (kbar)  31905.53      0.25     -0.10
                                0.25  31909.83     -0.05
                               -0.10     -0.05  32269.98

     local   stress (kbar) -15339.31    916.60   -436.52
                              916.60  -7656.91  -1323.62
                             -436.52  -1323.62  -1508.08

     nonloc. stress (kbar)    800.90     -0.75     -0.00
                               -0.75    798.31      0.12
                               -0.00      0.12    536.95

     hartree stress (kbar)  57804.65   -432.42    213.82
                             -432.42  54051.62    645.11
                              213.82    645.11  53632.55

     exc-cor stress (kbar) -12903.46     -0.06     -0.00
                               -0.06 -12903.51      0.00
                               -0.00      0.00 -12915.73

     corecor stress (kbar)   -274.96      0.00      0.00
                                0.00   -274.97      0.00
                                0.00      0.00   -275.33

     ewald   stress (kbar) -61778.26   -483.95    222.78
                             -483.95 -65710.09    678.45
                              222.78    678.45 -71738.96

     hubbard stress (kbar)      0.00      0.00      0.00
                                0.00      0.00      0.00
                                0.00      0.00      0.00

     london  stress (kbar)      0.00      0.00      0.00
                                0.00      0.00      0.00
                                0.00      0.00      0.00

     DFT-D3  stress (kbar)      0.00      0.00      0.00
                                0.00      0.00      0.00
                                0.00      0.00      0.00

     XDM     stress (kbar)      0.00      0.00      0.00
                                0.00      0.00      0.00
                                0.00      0.00      0.00

     dft-nl  stress (kbar)      0.00      0.00      0.00
                                0.00      0.00      0.00
                                0.00      0.00      0.00

     TS-vdW  stress (kbar)      0.00      0.00      0.00
                                0.00      0.00      0.00
                                0.00      0.00      0.00

     Message from routine bfgs:
     history already reset at previous step: stopping

     bfgs converged in   4 scf cycles and   1 bfgs steps
     (criteria: energy <  1.0E-07 Ry, force <  1.0E-06 Ry/Bohr)

     End of BFGS Geometry Optimization

     Final energy   =  -13735.4635251569 Ry
Begin final coordinates

ATOMIC_POSITIONS (crystal)
Zn       0.223327909   0.114135861   0.253763954    1   1   0
Zn       0.222927723   0.113762598   0.752602628    1   1   0
Zn       0.221494381   0.445128012   0.250666716    1   1   0
Zn       0.221031934   0.445159815   0.755800850    1   1   0
Zn       0.223067376   0.781933485   0.252916266    1   1   0
Zn       0.222098667   0.780709421   0.752225651    1   1   0
Zn       0.557313618   0.111814484   0.253490276    1   1   0
Zn       0.557994829   0.111063682   0.754081253    1   1   0
Zn       0.556090462   0.442927796   0.252363515    1   1   0
Mg       0.556684964   0.441738173   0.752824078    1   1   0
Mg       0.555003112   0.777647033   0.256213491    1   1   0
Zn       0.554593561   0.775604538   0.751001508    1   1   0
Zn       0.887578462   0.108071573   0.252871067    1   1   0
Mg       0.887140341   0.108572538   0.753053536    1   1   0
Zn       0.888976718   0.443953698   0.252315641    1   1   0
Mg       0.888822957   0.444421430   0.751235986    1   1   0
Mg       0.886879807   0.776421581   0.251483258    1   1   0
Mg       0.885642723   0.775259712   0.752108136    1   1   0
Zn       0.111172819   0.224231656   0.502507956    1   1   0
Zn       0.112018673   0.224630175   0.002868198    1   1   0
Zn       0.114189675   0.559945423   0.502462743    1   1   0
Mg       0.113249604   0.558666996   0.002026996    1   1   0
Mg       0.111577769   0.891465442   0.502264351    1   1   0
Mg       0.113383710   0.892777097   0.003807093    1   1   0
Zn       0.445334823   0.220985466   0.503769291    1   1   0
Zn       0.445197235   0.220860155   0.001153129    1   1   0
Mg       0.442500604   0.552519018   0.504965682    1   1   0
Mg       0.443634119   0.552883249   0.003909319    1   1   0
Mg       0.444640836   0.889515709   0.500216030    1   1   0
Zn       0.443889463   0.887615800   0.001542020    1   1   0
Zn       0.778970140   0.222643729   0.505095456    1   1   0
Zn       0.779049704   0.222759887   0.001905411    1   1   0
Zn       0.777164785   0.554144022   0.504149588    1   1   0
Zn       0.778043293   0.554029764   0.002010356    1   1   0
Zn       0.774330018   0.885768292   0.502596009    1   1   0
Zn       0.775170261   0.886474181   0.003535615    1   1   0
O        0.223072321   0.113989185   0.003534969    1   1   0
O        0.222715437   0.113418479   0.502507863    1   1   0
O        0.222235272   0.446236673   0.002868124    1   1   0
O        0.221043342   0.445824176   0.502463443    1   1   0
O        0.222344337   0.780733273   0.002027189    1   1   0
O        0.222437492   0.781195090   0.502264251    1   1   0
O        0.556528115   0.109987056   0.003807482    1   1   0
O        0.557145110   0.111399991   0.503768810    1   1   0
O        0.555851212   0.443658400   0.001153241    1   1   0
O        0.554953369   0.443578377   0.504965816    1   1   0
O        0.553013937   0.774999562   0.003909030    1   1   0
O        0.552027954   0.774627817   0.500216207    1   1   0
O        0.888700525   0.109468897   0.001542289    1   1   0
O        0.887912904   0.108797264   0.505095719    1   1   0
O        0.890778502   0.444926557   0.001905534    1   1   0
O        0.891122467   0.445399631   0.504149517    1   1   0
O        0.890085083   0.777873951   0.002010078    1   1   0
O        0.889014818   0.777571917   0.502595366    1   1   0
O        0.109979985   0.222932785   0.253764373    1   1   0
O        0.109960193   0.222709086   0.752603144    1   1   0
O        0.112152048   0.558550602   0.250666536    1   1   0
O        0.111629807   0.557909327   0.755800021    1   1   0
O        0.109271040   0.890578779   0.252915962    1   1   0
O        0.108750734   0.890150718   0.752226188    1   1   0
O        0.445143072   0.221386159   0.253490958    1   1   0
O        0.444638087   0.219678936   0.754081350    1   1   0
O        0.444945003   0.554576517   0.252363823    1   1   0
O        0.444464107   0.552537080   0.752824321    1   1   0
O        0.445063575   0.889256386   0.256212856    1   1   0
O        0.444749345   0.887941267   0.751001360    1   1   0
O        0.779764822   0.222225011   0.252870412    1   1   0
O        0.779802805   0.222707351   0.753053243    1   1   0
O        0.778045091   0.554720557   0.252316001    1   1   0
O        0.777981260   0.554487908   0.751236008    1   1   0
O        0.776436783   0.886895627   0.251483253    1   1   0
O        0.776052969   0.886828118   0.752108180    1   1   0
End final coordinates

     Writing output data file ZnO.save/

     General routines

     Parallel routines

   This run was terminated on:  19:59:23   8Nov2021

   JOB DONE.