     Program PWSCF v.6.4.1 starts on 16Jun2022 at 19:59:41

     K-points division:     npool     =       4
     R & G space division:  proc/nbgrp/npool/nimage =      16
     Waiting for input...
     Reading input from standard input

     Current dimensions of program PWSCF are:
     Max number of different atomic species (ntypx) = 10
     Max number of k-points (npk) =  40000
     Max angular momentum in pseudopotentials (lmaxx) =  3

NOTICE: Bravais lattice has wrong number ( 7) of symmetries - symmetries are disabled

     bravais-lattice index     =            0
     lattice parameter (alat)  =       6.2718  a.u.
     unit-cell volume          =     335.9271 (a.u.)^3
     number of atoms/cell      =            4
     number of atomic types    =            3
     number of electrons       =        42.00
     number of Kohn-Sham states=           21
     kinetic-energy cutoff     =      80.0000  Ry
     charge density cutoff     =     600.0000  Ry
     convergence threshold     =      1.0E-06
     mixing beta               =       0.5000
     number of iterations used =            8  plain     mixing
     Exchange-correlation      = SLA  PW   PSX  PSC ( 1  4 10  8 0 0)
     nstep                     =          200

     celldm(1)=   6.271829  celldm(2)=   0.000000  celldm(3)=   0.000000
     celldm(4)=   0.000000  celldm(5)=   0.000000  celldm(6)=   0.000000

     crystal axes: (cart. coord. in units of alat)
               a(1) = (   1.000000   0.000000   0.000000 )
               a(2) = (  -0.500000   0.866026   0.000000 )
               a(3) = (   0.000000   0.000001   1.572286 )

     reciprocal axes: (cart. coord. in units 2 pi/alat)
               b(1) = (  1.000000  0.577350 -0.000000 )
               b(2) = ( -0.000000  1.154700 -0.000000 )
               b(3) = ( -0.000000 -0.000000  0.636016 )

     PseudoPot. # 1 for Mg read from file:
     ./GBRV_PBEsol/mg_pbesol_v1.4.uspp.F.UPF
     MD5 check sum: 4059f37963cf5867752dbf5ab2400678
     Pseudo is Ultrasoft, Zval = 10.0
     Generated by new atomic code, or converted to UPF format
     Using radial grid of  821 points,  7 beta functions with:
                l(1) =   0
                l(2) =   0
                l(3) =   0
                l(4) =   1
                l(5) =   1
                l(6) =   2
                l(7) =   2
     Q(r) pseudized with  8 coefficients,  rinner =    1.200   1.200   1.200
                                                       1.200   1.200

     PseudoPot. # 2 for Zn read from file:
     ./GBRV_PBEsol/zn_pbesol_v1.uspp.F.UPF
     MD5 check sum: 7d8615e52efe7c1e2b1899de8658bae2
     Pseudo is Ultrasoft, Zval = 20.0
     Generated by new atomic code, or converted to UPF format
     Using radial grid of  943 points,  6 beta functions with:
                l(1) =   0
                l(2) =   0
                l(3) =   1
                l(4) =   1
                l(5) =   2
                l(6) =   2
     Q(r) pseudized with  8 coefficients,  rinner =    1.100   1.100   1.100
                                                       1.100   1.100

     PseudoPot. # 3 for O  read from file:
     ./GBRV_PBEsol/o_pbesol_v1.2.uspp.F.UPF
     MD5 check sum: 501638753501ef6325af9037351f7734
     Pseudo is Ultrasoft + core correction, Zval =  6.0
     Generated by new atomic code, or converted to UPF format
     Using radial grid of  737 points,  5 beta functions with:
                l(1) =   0
                l(2) =   0
                l(3) =   1
                l(4) =   1
                l(5) =   2
     Q(r) pseudized with  8 coefficients,  rinner =    0.900   0.900   0.900
                                                       0.900   0.900

     atomic species   valence    mass     pseudopotential
        Mg            10.00    24.30500     Mg( 1.00)
        Zn            20.00    65.38000     Zn( 1.00)
        O              6.00    15.99900     O ( 1.00)

     No symmetry found

                                    s                        frac. trans.

      isym =  1     identity

 cryst.   s( 1) = (     1          0          0      )
                  (     0          1          0      )
                  (     0          0          1      )

 cart.    s( 1) = (  1.0000000 -0.0000000  0.0000000 )
                  (  0.0000000  1.0000000 -0.0000000 )
                  ( -0.0000000  0.0000000  1.0000000 )

   Cartesian axes

     site n.     atom                  positions (alat units)
         1           O   tau(   1) = (   0.5000002   0.2886757   0.0115499  )
         2           O   tau(   2) = (   0.0000002   0.5773500   0.7976929  )
         3           Zn  tau(   3) = (   0.5000001   0.2886753   0.9339286  )
         4           Mg  tau(   4) = (   0.0000000   0.5773520   1.7252361  )

   Crystallographic axes

     site n.     atom                  positions (cryst. coord.)
         1           O   tau(   1) = (  0.6666670  0.3333337  0.0073459  )
         2           O   tau(   2) = (  0.3333329  0.6666657  0.5073458  )
         3           Zn  tau(   3) = (  0.6666664  0.3333329  0.5939939  )
         4           Mg  tau(   4) = (  0.3333336  0.6666677  1.0972785  )

     number of k points=   260
                       cart. coord. in units 2pi/alat
        k(    1) = (   0.0000000   0.0000000   0.0000000), wk =   0.0039062
        k(    2) = (  -0.0000000  -0.0000000   0.0795021), wk =   0.0078125
        k(    3) = (  -0.0000000  -0.0000001   0.1590041), wk =   0.0078125
        k(    4) = (  -0.0000000  -0.0000001   0.2385062), wk =   0.0078125
        k(    5) = (   0.0000000   0.0000001  -0.3180082), wk =   0.0039062
        k(    6) = (  -0.0000000   0.1443375  -0.0000001), wk =   0.0078125
        k(    7) = (  -0.0000000   0.1443375   0.0795020), wk =   0.0078125
        k(    8) = (  -0.0000000   0.1443375   0.1590041), wk =   0.0078125
        k(    9) = (  -0.0000000   0.1443374   0.2385061), wk =   0.0078125
        k(   10) = (   0.0000000   0.1443376  -0.3180083), wk =   0.0078125
        k(   11) = (   0.0000000   0.1443376  -0.2385062), wk =   0.0078125
        k(   12) = (  -0.0000000   0.1443376  -0.1590042), wk =   0.0078125
        k(   13) = (  -0.0000000   0.1443375  -0.0795021), wk =   0.0078125
        k(   14) = (  -0.0000000   0.2886750  -0.0000001), wk =   0.0078125
        k(   15) = (  -0.0000000   0.2886750   0.0795020), wk =   0.0078125
        k(   16) = (  -0.0000001   0.2886750   0.1590040), wk =   0.0078125
        k(   17) = (  -0.0000001   0.2886749   0.2385061), wk =   0.0078125
        k(   18) = (  -0.0000000   0.2886751  -0.3180084), wk =   0.0078125
        k(   19) = (  -0.0000000   0.2886751  -0.2385063), wk =   0.0078125
        k(   20) = (  -0.0000000   0.2886751  -0.1590042), wk =   0.0078125
        k(   21) = (  -0.0000000   0.2886750  -0.0795022), wk =   0.0078125
        k(   22) = (  -0.0000001   0.4330125  -0.0000002), wk =   0.0078125
        k(   23) = (  -0.0000001   0.4330125   0.0795019), wk =   0.0078125
        k(   24) = (  -0.0000001   0.4330125   0.1590040), wk =   0.0078125
        k(   25) = (  -0.0000001   0.4330124   0.2385060), wk =   0.0078125
        k(   26) = (  -0.0000000   0.4330126  -0.3180084), wk =   0.0078125
        k(   27) = (  -0.0000000   0.4330126  -0.2385063), wk =   0.0078125
        k(   28) = (  -0.0000000   0.4330126  -0.1590043), wk =   0.0078125
        k(   29) = (  -0.0000001   0.4330125  -0.0795022), wk =   0.0078125
        k(   30) = (   0.0000001  -0.5773500   0.0000002), wk =   0.0039062
        k(   31) = (   0.0000001  -0.5773500   0.0795023), wk =   0.0078125
        k(   32) = (   0.0000001  -0.5773501   0.1590043), wk =   0.0078125
        k(   33) = (   0.0000001  -0.5773501   0.2385064), wk =   0.0078125
        k(   34) = (   0.0000001  -0.5773499  -0.3180080), wk =   0.0039062
        k(   35) = (   0.1250000   0.0721687  -0.0000000), wk =   0.0078125
        k(   36) = (   0.1250000   0.0721687   0.0795020), wk =   0.0078125
        k(   37) = (   0.1250000   0.0721687   0.1590041), wk =   0.0078125
        k(   38) = (   0.1250000   0.0721687   0.2385062), wk =   0.0078125
        k(   39) = (   0.1250000   0.0721688  -0.3180083), wk =   0.0078125
        k(   40) = (   0.1250000   0.0721688  -0.2385062), wk =   0.0078125
        k(   41) = (   0.1250000   0.0721688  -0.1590042), wk =   0.0078125
        k(   42) = (   0.1250000   0.0721688  -0.0795021), wk =   0.0078125
        k(   43) = (   0.1250000   0.2165062  -0.0000001), wk =   0.0078125
        k(   44) = (   0.1250000   0.2165062   0.0795020), wk =   0.0078125
        k(   45) = (   0.1250000   0.2165062   0.1590040), wk =   0.0078125
        k(   46) = (   0.1250000   0.2165062   0.2385061), wk =   0.0078125
        k(   47) = (   0.1250000   0.2165063  -0.3180083), wk =   0.0078125
        k(   48) = (   0.1250000   0.2165063  -0.2385063), wk =   0.0078125
        k(   49) = (   0.1250000   0.2165063  -0.1590042), wk =   0.0078125
        k(   50) = (   0.1250000   0.2165063  -0.0795022), wk =   0.0078125
        k(   51) = (   0.1250000   0.3608437  -0.0000001), wk =   0.0078125
        k(   52) = (   0.1249999   0.3608437   0.0795019), wk =   0.0078125
        k(   53) = (   0.1249999   0.3608437   0.1590040), wk =   0.0078125
        k(   54) = (   0.1249999   0.3608437   0.2385060), wk =   0.0078125
        k(   55) = (   0.1250000   0.3608438  -0.3180084), wk =   0.0078125
        k(   56) = (   0.1250000   0.3608438  -0.2385063), wk =   0.0078125
        k(   57) = (   0.1250000   0.3608438  -0.1590043), wk =   0.0078125
        k(   58) = (   0.1250000   0.3608438  -0.0795022), wk =   0.0078125
        k(   59) = (   0.1249999   0.5051812  -0.0000002), wk =   0.0078125
        k(   60) = (   0.1249999   0.5051812   0.0795019), wk =   0.0078125
[...]
        k(  246) = (  -0.5000000   0.0000001  -0.1590041), wk =   0.0078125
        k(  247) = (  -0.5000000   0.0000001  -0.0795020), wk =   0.0078125
        k(  248) = (  -0.5000000   0.1443376  -0.0000000), wk =   0.0078125
        k(  249) = (  -0.5000000   0.1443375   0.0795021), wk =   0.0078125
        k(  250) = (  -0.5000000   0.1443375   0.1590041), wk =   0.0078125
        k(  251) = (  -0.5000000   0.1443375   0.2385062), wk =   0.0078125
        k(  252) = (  -0.5000000   0.1443377  -0.3180083), wk =   0.0078125
        k(  253) = (  -0.5000000   0.1443376  -0.2385062), wk =   0.0078125
        k(  254) = (  -0.5000000   0.1443376  -0.1590041), wk =   0.0078125
        k(  255) = (  -0.5000000   0.1443376  -0.0795021), wk =   0.0078125
        k(  256) = (  -0.4999999  -0.8660249   0.0000004), wk =   0.0039062
        k(  257) = (  -0.4999999  -0.8660250   0.0795024), wk =   0.0078125
        k(  258) = (  -0.4999999  -0.8660250   0.1590045), wk =   0.0078125
        k(  259) = (  -0.4999999  -0.8660250   0.2385065), wk =   0.0078125
        k(  260) = (  -0.4999999  -0.8660248  -0.3180079), wk =   0.0039062

                       cryst. coord.
        k(    1) = (   0.0000000   0.0000000   0.0000000), wk =   0.0039062
        k(    2) = (   0.0000000  -0.0000000   0.1250000), wk =   0.0078125
[...]
        k(   23) = (  -0.0000000   0.4327688   0.0843323), wk =   0.0078125
        k(   24) = (  -0.0000000   0.4327688   0.1686646), wk =   0.0078125
        k(   25) = (  -0.0000000   0.4327689   0.2529969), wk =   0.0078125
        k(   26) = (  -0.0000001   0.4327688  -0.3373292), wk =   0.0078125
        k(   27) = (  -0.0000001   0.4327688  -0.2529969), wk =   0.0078125
        k(   28) = (  -0.0000000   0.4327688  -0.1686646), wk =   0.0078125
        k(   29) = (  -0.0000000   0.4327688  -0.0843323), wk =   0.0078125
        k(   30) = (   0.0000000  -0.5770251  -0.0000000), wk =   0.0039062
        k(   31) = (   0.0000001  -0.5770251   0.0843323), wk =   0.0078125
        k(   32) = (   0.0000001  -0.5770251   0.1686646), wk =   0.0078125
        k(   33) = (   0.0000001  -0.5770250   0.2529969), wk =   0.0078125
        k(   34) = (   0.0000000  -0.5770251  -0.3373292), wk =   0.0039062
        k(   35) = (   0.1249296   0.0721281   0.0000000), wk =   0.0078125
        k(   36) = (   0.1249296   0.0721281   0.0843323), wk =   0.0078125
        k(   37) = (   0.1249296   0.0721282   0.1686646), wk =   0.0078125
        k(   38) = (   0.1249296   0.0721282   0.2529969), wk =   0.0078125
        k(   39) = (   0.1249296   0.0721281  -0.3373292), wk =   0.0078125
        k(   40) = (   0.1249296   0.0721281  -0.2529969), wk =   0.0078125
        k(   41) = (   0.1249296   0.0721281  -0.1686646), wk =   0.0078125
        k(   42) = (   0.1249296   0.0721281  -0.0843323), wk =   0.0078125
        k(   43) = (   0.1249296   0.2163844   0.0000000), wk =   0.0078125
        k(   44) = (   0.1249296   0.2163844   0.0843323), wk =   0.0078125
        k(   45) = (   0.1249296   0.2163844   0.1686646), wk =   0.0078125
        k(   46) = (   0.1249296   0.2163844   0.2529969), wk =   0.0078125
        k(   47) = (   0.1249296   0.2163843  -0.3373292), wk =   0.0078125
        k(   48) = (   0.1249296   0.2163844  -0.2529969), wk =   0.0078125
        k(   49) = (   0.1249296   0.2163844  -0.1686646), wk =   0.0078125
        k(   50) = (   0.1249296   0.2163844  -0.0843323), wk =   0.0078125
        k(   51) = (   0.1249296   0.3606407   0.0000000), wk =   0.0078125
        k(   52) = (   0.1249296   0.3606407   0.0843323), wk =   0.0078125
        k(   53) = (   0.1249296   0.3606407   0.1686646), wk =   0.0078125
        k(   54) = (   0.1249296   0.3606407   0.2529969), wk =   0.0078125
        k(   55) = (   0.1249295   0.3606406  -0.3373292), wk =   0.0078125
        k(   56) = (   0.1249296   0.3606406  -0.2529969), wk =   0.0078125
        k(   57) = (   0.1249296   0.3606406  -0.1686646), wk =   0.0078125
        k(   58) = (   0.1249296   0.3606407  -0.0843323), wk =   0.0078125
        k(   59) = (   0.1249296   0.5048969   0.0000000), wk =   0.0078125
        k(   60) = (   0.1249296   0.5048970   0.0843323), wk =   0.0078125
[...]
        k(  246) = (  -0.4997184   0.0000000  -0.1686646), wk =   0.0078125
        k(  247) = (  -0.4997184   0.0000000  -0.0843323), wk =   0.0078125
        k(  248) = (  -0.4997184   0.1442563  -0.0000000), wk =   0.0078125
        k(  249) = (  -0.4997184   0.1442563   0.0843323), wk =   0.0078125
        k(  250) = (  -0.4997184   0.1442563   0.1686646), wk =   0.0078125
        k(  251) = (  -0.4997184   0.1442564   0.2529969), wk =   0.0078125
        k(  252) = (  -0.4997185   0.1442563  -0.3373293), wk =   0.0078125
        k(  253) = (  -0.4997185   0.1442563  -0.2529969), wk =   0.0078125
        k(  254) = (  -0.4997184   0.1442563  -0.1686646), wk =   0.0078125
        k(  255) = (  -0.4997184   0.1442563  -0.0843323), wk =   0.0078125
        k(  256) = (  -0.4997184  -0.8655376  -0.0000001), wk =   0.0039062
        k(  257) = (  -0.4997184  -0.8655376   0.0843323), wk =   0.0078125
        k(  258) = (  -0.4997183  -0.8655376   0.1686646), wk =   0.0078125
        k(  259) = (  -0.4997183  -0.8655375   0.2529969), wk =   0.0078125
        k(  260) = (  -0.4997184  -0.8655376  -0.3373293), wk =   0.0039062

                       cryst. coord.
        k(    1) = (   0.0000000   0.0000000   0.0000000), wk =   0.0039062
        k(    2) = (   0.0000000  -0.0000000   0.1250000), wk =   0.0078125
        k(    3) = (   0.0000000  -0.0000000   0.2500000), wk =   0.0078125
        k(    4) = (   0.0000000  -0.0000000   0.3750000), wk =   0.0078125
        k(    5) = (  -0.0000000   0.0000000  -0.5000000), wk =   0.0039062
        k(    6) = (  -0.0000000   0.1250000  -0.0000000), wk =   0.0078125
        k(    7) = (   0.0000000   0.1250000   0.1250000), wk =   0.0078125
        k(    8) = (   0.0000000   0.1250000   0.2500000), wk =   0.0078125
        k(    9) = (   0.0000000   0.1250000   0.3750000), wk =   0.0078125
        k(   10) = (  -0.0000000   0.1250000  -0.5000000), wk =   0.0078125
        k(   11) = (  -0.0000000   0.1250000  -0.3750000), wk =   0.0078125
        k(   12) = (  -0.0000000   0.1250000  -0.2500000), wk =   0.0078125
        k(   13) = (  -0.0000000   0.1250000  -0.1250000), wk =   0.0078125
        k(   14) = (  -0.0000000   0.2500000  -0.0000000), wk =   0.0078125
        k(   15) = (   0.0000000   0.2500000   0.1250000), wk =   0.0078125
        k(   16) = (   0.0000000   0.2500000   0.2500000), wk =   0.0078125
        k(   17) = (   0.0000000   0.2500000   0.3750000), wk =   0.0078125
        k(   18) = (  -0.0000000   0.2500000  -0.5000000), wk =   0.0078125
        k(   19) = (  -0.0000000   0.2500000  -0.3750000), wk =   0.0078125
        k(   20) = (  -0.0000000   0.2500000  -0.2500000), wk =   0.0078125
        k(   21) = (   0.0000000   0.2500000  -0.1250000), wk =   0.0078125
        k(   22) = (   0.0000000   0.3750000  -0.0000000), wk =   0.0078125
        k(   23) = (  -0.0000000   0.3750000   0.1250000), wk =   0.0078125
        k(   24) = (  -0.0000000   0.3750000   0.2500000), wk =   0.0078125
        k(   25) = (   0.0000000   0.3750000   0.3750000), wk =   0.0078125
        k(   26) = (  -0.0000000   0.3750000  -0.5000000), wk =   0.0078125
        k(   27) = (  -0.0000000   0.3750000  -0.3750000), wk =   0.0078125
        k(   28) = (   0.0000000   0.3750000  -0.2500000), wk =   0.0078125
        k(   29) = (   0.0000000   0.3750000  -0.1250000), wk =   0.0078125
        k(   30) = (   0.0000000  -0.5000000   0.0000000), wk =   0.0039062
        k(   31) = (   0.0000000  -0.5000000   0.1250000), wk =   0.0078125
        k(   32) = (  -0.0000000  -0.5000000   0.2500000), wk =   0.0078125
        k(   33) = (  -0.0000000  -0.5000000   0.3750000), wk =   0.0078125
        k(   34) = (  -0.0000000  -0.5000000  -0.5000000), wk =   0.0039062
        k(   35) = (   0.1250000  -0.0000000  -0.0000000), wk =   0.0078125
        k(   36) = (   0.1250000  -0.0000000   0.1250000), wk =   0.0078125
        k(   37) = (   0.1250000  -0.0000000   0.2500000), wk =   0.0078125
        k(   38) = (   0.1250000  -0.0000000   0.3750000), wk =   0.0078125
        k(   39) = (   0.1250000  -0.0000000  -0.5000000), wk =   0.0078125
        k(   40) = (   0.1250000  -0.0000000  -0.3750000), wk =   0.0078125
        k(   41) = (   0.1250000  -0.0000000  -0.2500000), wk =   0.0078125
        k(   42) = (   0.1250000  -0.0000000  -0.1250000), wk =   0.0078125
        k(   43) = (   0.1250000   0.1250000   0.0000000), wk =   0.0078125
        k(   44) = (   0.1250000   0.1250000   0.1250000), wk =   0.0078125
        k(   45) = (   0.1250000   0.1250000   0.2500000), wk =   0.0078125
        k(   46) = (   0.1250000   0.1250000   0.3750000), wk =   0.0078125
        k(   47) = (   0.1250000   0.1250000  -0.5000000), wk =   0.0078125
        k(   48) = (   0.1250000   0.1250000  -0.3750000), wk =   0.0078125
        k(   49) = (   0.1250000   0.1250000  -0.2500000), wk =   0.0078125
        k(   50) = (   0.1250000   0.1250000  -0.1250000), wk =   0.0078125
        k(   51) = (   0.1250000   0.2500000   0.0000000), wk =   0.0078125
        k(   52) = (   0.1250000   0.2500000   0.1250000), wk =   0.0078125
        k(   53) = (   0.1250000   0.2500000   0.2500000), wk =   0.0078125
        k(   54) = (   0.1250000   0.2500000   0.3750000), wk =   0.0078125
        k(   55) = (   0.1250000   0.2500000  -0.5000000), wk =   0.0078125
        k(   56) = (   0.1250000   0.2500000  -0.3750000), wk =   0.0078125
        k(   57) = (   0.1250000   0.2500000  -0.2500000), wk =   0.0078125
        k(   58) = (   0.1250000   0.2500000  -0.1250000), wk =   0.0078125
        k(   59) = (   0.1250000   0.3750000   0.0000000), wk =   0.0078125
        k(   60) = (   0.1250000   0.3750000   0.1250000), wk =   0.0078125
[...]
        k(  246) = (  -0.5000000   0.2500000  -0.2500000), wk =   0.0078125
        k(  247) = (  -0.5000000   0.2500000  -0.1250000), wk =   0.0078125
        k(  248) = (  -0.5000000   0.3750000  -0.0000000), wk =   0.0078125
        k(  249) = (  -0.5000000   0.3750000   0.1250000), wk =   0.0078125
        k(  250) = (  -0.5000000   0.3750000   0.2500000), wk =   0.0078125
        k(  251) = (  -0.5000000   0.3750000   0.3750000), wk =   0.0078125
        k(  252) = (  -0.5000000   0.3750000  -0.5000000), wk =   0.0078125
        k(  253) = (  -0.5000000   0.3750000  -0.3750000), wk =   0.0078125
        k(  254) = (  -0.5000000   0.3750000  -0.2500000), wk =   0.0078125
        k(  255) = (  -0.5000000   0.3750000  -0.1250000), wk =   0.0078125
        k(  256) = (  -0.5000000  -0.5000000  -0.0000000), wk =   0.0039062
        k(  257) = (  -0.5000000  -0.5000000   0.1250000), wk =   0.0078125
        k(  258) = (  -0.5000000  -0.5000000   0.2500000), wk =   0.0078125
        k(  259) = (  -0.5000000  -0.5000000   0.3750000), wk =   0.0078125
        k(  260) = (  -0.5000000  -0.5000000  -0.5000000), wk =   0.0039062

     Check: negative core charge=   -0.000003

     Initial potential from superposition of free atoms

     starting charge   41.69964, renormalised to   42.00000
     Starting wfcs are   26 randomized atomic wfcs

     Self-consistent Calculation

[...]

     total energy              =    -651.12855325 Ry
     Harris-Foulkes estimate   =    -651.12855325 Ry
     estimated scf accuracy    <       0.00000003 Ry

     iteration # 10     ecut=    80.00 Ry     beta= 0.50
     Davidson diagonalization with overlap
     ethr =  8.04E-11,  avg # of iterations =  2.0

     End of self-consistent calculation

[...]

          k = 0.3748 0.0721-0.0843 (  3832 PWs)   bands (ev):

[...]

          k =-0.4997-0.8655-0.3373 (  3812 PWs)   bands (ev):

  -115.8521 -70.2275 -70.2021 -70.2008 -65.1713 -32.1756 -32.1631 -32.1419
    -9.7824  -9.0972   1.3829   2.0696   2.0890   2.2190   2.7668   2.9555
     4.0519   5.1944   5.4345   5.7121   6.5025

     occupation numbers
     1.0000   1.0000   1.0000   1.0000   1.0000   1.0000   1.0000   1.0000
     1.0000   1.0000   1.0000   1.0000   1.0000   1.0000   1.0000   1.0000
     1.0000   1.0000   1.0000   1.0000   1.0000

     highest occupied level (ev):     6.9201

!    total energy              =    -651.12855326 Ry
     Harris-Foulkes estimate   =    -651.12855326 Ry
     estimated scf accuracy    <          2.2E-10 Ry

     The total energy is the sum of the following terms:

     one-electron contribution =    -535.12464138 Ry
     hartree contribution      =     280.92424318 Ry
     xc contribution           =     -73.07125376 Ry
     ewald contribution        =    -323.85690130 Ry

     convergence has been achieved in  10 iterations

     Forces acting on atoms (cartesian axes, Ry/au):

     atom    1 type  3   force =    -0.00000049    0.00000045   -0.00281652
     atom    2 type  3   force =    -0.00000020    0.00000090   -0.01058373
     atom    3 type  2   force =     0.00000030   -0.00000047    0.01765850
     atom    4 type  1   force =     0.00000039   -0.00000087   -0.00425825
     The non-local contrib.  to forces
     atom    1 type  3   force =    -0.00000016   -0.00000097   -0.15721668
     atom    2 type  3   force =     0.00000042    0.00000054    0.02888578
     atom    3 type  2   force =     0.00000142   -0.00000533   -0.21873201
     atom    4 type  1   force =     0.00000114   -0.00000072   -0.05530608
     The ionic contribution  to forces
     atom    1 type  3   force =    -0.00000652    0.00002250    5.53159852
     atom    2 type  3   force =    -0.00000977    0.00001897   -4.11055878
     atom    3 type  2   force =     0.00000892   -0.00003167   -0.48604038
     atom    4 type  1   force =     0.00000737   -0.00000980   -0.93499936
     The local contribution  to forces
     atom    1 type  3   force =     0.00000619   -0.00002107   -5.37860083
     atom    2 type  3   force =     0.00000916   -0.00001860    4.07185517
     atom    3 type  2   force =    -0.00001005    0.00003652    0.72238890
     atom    4 type  1   force =    -0.00000812    0.00000965    0.98605787
     The core correction contribution to forces
     atom    1 type  3   force =     0.00000000   -0.00000001    0.00142138
     atom    2 type  3   force =     0.00000000   -0.00000001   -0.00077015
     atom    3 type  2   force =     0.00000000    0.00000000    0.00000000
     atom    4 type  1   force =     0.00000000    0.00000000    0.00000000
     The Hubbard contrib.    to forces
     atom    1 type  3   force =     0.00000000    0.00000000    0.00000000
     atom    2 type  3   force =     0.00000000    0.00000000    0.00000000
     atom    3 type  2   force =     0.00000000    0.00000000    0.00000000
     atom    4 type  1   force =     0.00000000    0.00000000    0.00000000
     The SCF correction term to forces
     atom    1 type  3   force =     0.00000000    0.00000000    0.00000000
     atom    2 type  3   force =     0.00000000    0.00000000    0.00000000
     atom    3 type  2   force =     0.00000000    0.00000000    0.00000000
     atom    4 type  1   force =     0.00000000    0.00000000    0.00000000

     Total force =     0.000000     Total SCF correction =     0.000000

     Computing stress (Cartesian axis) and pressure

          total   stress  (Ry/bohr**3)                   (kbar)     P=   -0.40
  -0.00000175   0.00000000   0.00000001         -0.26      0.00      0.00
   0.00000000  -0.00000175   0.00000001          0.00     -0.26      0.00
   0.00000001   0.00000001  -0.00000465          0.00      0.00     -0.68

     kinetic stress (kbar)  26582.87      0.00      0.00
                                0.00  26582.87      0.00
                                0.00      0.00  26727.03

     local   stress (kbar) -17465.21     -0.01     -0.01
                               -0.01 -17465.19      0.05
                               -0.01      0.05   1942.27

     nonloc. stress (kbar)   1799.95     -0.00     -0.00
                               -0.00   1799.95     -0.00
                               -0.00     -0.00   1735.39

     hartree stress (kbar)  46421.98      0.00      0.00
                                0.00  46421.98     -0.02
                                0.00     -0.02  37502.20

     exc-cor stress (kbar) -10521.75     -0.00     -0.00
                               -0.00 -10521.75     -0.00
                               -0.00     -0.00 -10524.91

     corecor stress (kbar)   -250.71     -0.00     -0.00
                               -0.00   -250.71      0.00
                               -0.00      0.00   -250.97

     ewald   stress (kbar) -46567.40      0.01      0.01
                                0.01 -46567.41     -0.03
                                0.01     -0.03 -57131.69

     hubbard stress (kbar)      0.00      0.00      0.00
                                0.00      0.00      0.00
                                0.00      0.00      0.00

     london  stress (kbar)      0.00      0.00      0.00
                                0.00      0.00      0.00
                                0.00      0.00      0.00

     DFT-D3  stress (kbar)      0.00      0.00      0.00
                                0.00      0.00      0.00
                                0.00      0.00      0.00

     XDM     stress (kbar)      0.00      0.00      0.00
                                0.00      0.00      0.00
                                0.00      0.00      0.00

     dft-nl  stress (kbar)      0.00      0.00      0.00
                                0.00      0.00      0.00
                                0.00      0.00      0.00

     TS-vdW  stress (kbar)      0.00      0.00      0.00
                                0.00      0.00      0.00
                                0.00      0.00      0.00

     Writing output data file ZnO.save/

     General routines

     Parallel routines

   This run was terminated on:  20: 2: 4  16Jun2022

   JOB DONE.