     Program PWSCF v.6.4.1 starts on 15Jun2022 at 20:43:32

     K-points division:     npool     =       4
     R & G space division:  proc/nbgrp/npool/nimage =      16
     Waiting for input...
     Reading input from standard input
Warning: card &IONS ignored
Warning: card   UPSCALE           = 100.D0, ignored
Warning: card / ignored
Warning: card &CELL ignored
Warning: card   CELL_DYNAMICS     = 'BFGS' ignored
Warning: card   PRESS_CONV_THR    = 0.5D0 ignored
Warning: card   CELL_DOFREE = 'ALL' ignored
Warning: card / ignored

     Current dimensions of program PWSCF are:
     Max number of different atomic species (ntypx) = 10
     Max number of k-points (npk) =  40000
     Max angular momentum in pseudopotentials (lmaxx) =  3

     Message from routine set_sym_bl:
     NOTICE: Symmetry group for Bravais lattice is not a group (12) - symmetries are disabled

     bravais-lattice index     =            0
     lattice parameter (alat)  =       6.1506  a.u.
     unit-cell volume          =     318.6031 (a.u.)^3
     number of atoms/cell      =            4
     number of atomic types    =            2
     number of electrons       =        52.00
     number of Kohn-Sham states=           26
     kinetic-energy cutoff     =      80.0000  Ry
     charge density cutoff     =     600.0000  Ry
     convergence threshold     =      1.0E-06
     mixing beta               =       0.5000
     number of iterations used =            8  plain     mixing
     Exchange-correlation      = SLA  PW   PSX  PSC ( 1  4 10  8 0 0)

     celldm(1)=   6.150552  celldm(2)=   0.000000  celldm(3)=   0.000000
     celldm(4)=   0.000000  celldm(5)=   0.000000  celldm(6)=   0.000000

     crystal axes: (cart. coord. in units of alat)
               a(1) = (   1.000000   0.000000   0.000000 )
               a(2) = (  -0.500000   0.866025   0.000000 )
               a(3) = (   0.000000   0.000001   1.581165 )

     reciprocal axes: (cart. coord. in units 2 pi/alat)
               b(1) = (  1.000000  0.577350 -0.000000 )
               b(2) = ( -0.000000  1.154701 -0.000000 )
               b(3) = ( -0.000000 -0.000000  0.632445 )

     PseudoPot. # 1 for Zn read from file:
     ./GBRV_PBEsol/zn_pbesol_v1.uspp.F.UPF
     MD5 check sum: 7d8615e52efe7c1e2b1899de8658bae2
     Pseudo is Ultrasoft, Zval = 20.0
     Generated by new atomic code, or converted to UPF format
     Using radial grid of  943 points,  6 beta functions with:
                l(1) =   0
                l(2) =   0
                l(3) =   1
                l(4) =   1
                l(5) =   2
                l(6) =   2
     Q(r) pseudized with  8 coefficients,  rinner =    1.100   1.100   1.100
                                                       1.100   1.100

     PseudoPot. # 2 for O  read from file:
     ./GBRV_PBEsol/o_pbesol_v1.2.uspp.F.UPF
     MD5 check sum: 501638753501ef6325af9037351f7734
     Pseudo is Ultrasoft + core correction, Zval =  6.0
     Generated by new atomic code, or converted to UPF format
     Using radial grid of  737 points,  5 beta functions with:
                l(1) =   0
                l(2) =   0
                l(3) =   1
                l(4) =   1
                l(5) =   2
     Q(r) pseudized with  8 coefficients,  rinner =    0.900   0.900   0.900
                                                       0.900   0.900

     atomic species   valence    mass     pseudopotential
        Zn            20.00    65.38000     Zn( 1.00)
        O              6.00    15.99900     O ( 1.00)

     No symmetry found

                                    s                        frac. trans.

      isym =  1     identity

 cryst.   s( 1) = (     1          0          0      )
                  (     0          1          0      )
                  (     0          0          1      )

 cart.    s( 1) = (  1.0000000 -0.0000000 -0.0000000 )
                  (  0.0000000  1.0000000  0.0000000 )
                  (  0.0000000 -0.0000000  1.0000000 )

   Cartesian axes

     site n.     atom                  positions (alat units)
         1           O   tau(   1) = (   0.5000002   0.2886754   0.0116152  )
         2           O   tau(   2) = (   0.0000003   0.5773495   0.8021978  )
         3           Zn  tau(   3) = (   0.5000001   0.2886749   0.6267018  )
         4           Zn  tau(   4) = (   0.0000001   0.5773514   1.4172844  )

   Crystallographic axes

     site n.     atom                  positions (cryst. coord.)
         1           O   tau(   1) = (  0.6666670  0.3333337  0.0073459  )
         2           O   tau(   2) = (  0.3333329  0.6666657  0.5073458  )
         3           Zn  tau(   3) = (  0.6666664  0.3333329  0.3963542  )
         4           Zn  tau(   4) = (  0.3333337  0.6666677  0.8963542  )

     number of k points=   260
                       cart. coord. in units 2pi/alat
        k(    1) = (   0.0000000   0.0000000   0.0000000), wk =   0.0039062
        k(    2) = (  -0.0000000  -0.0000000   0.0790556), wk =   0.0078125
        k(    3) = (  -0.0000000  -0.0000001   0.1581112), wk =   0.0078125
        k(    4) = (  -0.0000001  -0.0000001   0.2371668), wk =   0.0078125
        k(    5) = (   0.0000001   0.0000001  -0.3162225), wk =   0.0039062
        k(    6) = (  -0.0000000   0.1443376  -0.0000000), wk =   0.0078125
        k(    7) = (  -0.0000000   0.1443376   0.0790556), wk =   0.0078125
        k(    8) = (  -0.0000001   0.1443376   0.1581112), wk =   0.0078125
        k(    9) = (  -0.0000001   0.1443375   0.2371668), wk =   0.0078125
        k(   10) = (   0.0000001   0.1443377  -0.3162225), wk =   0.0078125
        k(   11) = (   0.0000000   0.1443377  -0.2371669), wk =   0.0078125
        k(   12) = (   0.0000000   0.1443377  -0.1581113), wk =   0.0078125
        k(   13) = (  -0.0000000   0.1443376  -0.0790557), wk =   0.0078125
        k(   14) = (  -0.0000000   0.2886752  -0.0000001), wk =   0.0078125
        k(   15) = (  -0.0000001   0.2886752   0.0790555), wk =   0.0078125
        k(   16) = (  -0.0000001   0.2886752   0.1581111), wk =   0.0078125
        k(   17) = (  -0.0000001   0.2886752   0.2371667), wk =   0.0078125
        k(   18) = (   0.0000000   0.2886754  -0.3162225), wk =   0.0078125
        k(   19) = (   0.0000000   0.2886753  -0.2371669), wk =   0.0078125
        k(   20) = (  -0.0000000   0.2886753  -0.1581113), wk =   0.0078125
        k(   21) = (  -0.0000000   0.2886753  -0.0790557), wk =   0.0078125
        k(   22) = (  -0.0000001   0.4330129  -0.0000001), wk =   0.0078125
        k(   23) = (  -0.0000001   0.4330128   0.0790555), wk =   0.0078125
        k(   24) = (  -0.0000001   0.4330128   0.1581111), wk =   0.0078125
        k(   25) = (  -0.0000001   0.4330128   0.2371667), wk =   0.0078125
        k(   26) = (   0.0000000   0.4330130  -0.3162226), wk =   0.0078125
        k(   27) = (  -0.0000000   0.4330129  -0.2371670), wk =   0.0078125
        k(   28) = (  -0.0000000   0.4330129  -0.1581114), wk =   0.0078125
        k(   29) = (  -0.0000000   0.4330129  -0.0790558), wk =   0.0078125
        k(   30) = (   0.0000001  -0.5773505   0.0000002), wk =   0.0039062
        k(   31) = (   0.0000001  -0.5773505   0.0790558), wk =   0.0078125
        k(   32) = (   0.0000000  -0.5773505   0.1581114), wk =   0.0078125
        k(   33) = (   0.0000000  -0.5773506   0.2371670), wk =   0.0078125
        k(   34) = (   0.0000001  -0.5773504  -0.3162223), wk =   0.0039062
        k(   35) = (   0.1250000   0.0721688  -0.0000000), wk =   0.0078125
        k(   36) = (   0.1250000   0.0721688   0.0790556), wk =   0.0078125
        k(   37) = (   0.1250000   0.0721687   0.1581112), wk =   0.0078125
        k(   38) = (   0.1249999   0.0721687   0.2371668), wk =   0.0078125
        k(   39) = (   0.1250001   0.0721689  -0.3162225), wk =   0.0078125
        k(   40) = (   0.1250000   0.0721689  -0.2371669), wk =   0.0078125
        k(   41) = (   0.1250000   0.0721689  -0.1581113), wk =   0.0078125
        k(   42) = (   0.1250000   0.0721688  -0.0790557), wk =   0.0078125
        k(   43) = (   0.1250000   0.2165064  -0.0000001), wk =   0.0078125
        k(   44) = (   0.1250000   0.2165064   0.0790555), wk =   0.0078125
        k(   45) = (   0.1249999   0.2165064   0.1581111), wk =   0.0078125
        k(   46) = (   0.1249999   0.2165063   0.2371667), wk =   0.0078125
        k(   47) = (   0.1250000   0.2165065  -0.3162225), wk =   0.0078125
        k(   48) = (   0.1250000   0.2165065  -0.2371669), wk =   0.0078125
        k(   49) = (   0.1250000   0.2165065  -0.1581113), wk =   0.0078125
        k(   50) = (   0.1250000   0.2165064  -0.0790557), wk =   0.0078125
        k(   51) = (   0.1250000   0.3608440  -0.0000001), wk =   0.0078125
        k(   52) = (   0.1249999   0.3608440   0.0790555), wk =   0.0078125
        k(   53) = (   0.1249999   0.3608440   0.1581111), wk =   0.0078125
        k(   54) = (   0.1249999   0.3608440   0.2371667), wk =   0.0078125
        k(   55) = (   0.1250000   0.3608441  -0.3162226), wk =   0.0078125
        k(   56) = (   0.1250000   0.3608441  -0.2371670), wk =   0.0078125
        k(   57) = (   0.1250000   0.3608441  -0.1581114), wk =   0.0078125
        k(   58) = (   0.1250000   0.3608441  -0.0790558), wk =   0.0078125
        k(   59) = (   0.1249999   0.5051817  -0.0000002), wk =   0.0078125
        k(   60) = (   0.1249999   0.5051816   0.0790554), wk =   0.0078125
[...]
        k(  246) = (  -0.5000000   0.0000001  -0.1581111), wk =   0.0078125
        k(  247) = (  -0.5000000   0.0000001  -0.0790555), wk =   0.0078125
        k(  248) = (  -0.5000000   0.1443377   0.0000001), wk =   0.0078125
        k(  249) = (  -0.5000000   0.1443377   0.0790557), wk =   0.0078125
        k(  250) = (  -0.5000001   0.1443376   0.1581113), wk =   0.0078125
        k(  251) = (  -0.5000001   0.1443376   0.2371669), wk =   0.0078125
        k(  252) = (  -0.4999999   0.1443378  -0.3162224), wk =   0.0078125
        k(  253) = (  -0.5000000   0.1443378  -0.2371668), wk =   0.0078125
        k(  254) = (  -0.5000000   0.1443377  -0.1581112), wk =   0.0078125
        k(  255) = (  -0.5000000   0.1443377  -0.0790556), wk =   0.0078125
        k(  256) = (  -0.4999999  -0.8660257   0.0000004), wk =   0.0039062
        k(  257) = (  -0.4999999  -0.8660257   0.0790560), wk =   0.0078125
        k(  258) = (  -0.4999999  -0.8660257   0.1581116), wk =   0.0078125
        k(  259) = (  -0.4999999  -0.8660257   0.2371672), wk =   0.0078125
        k(  260) = (  -0.4999998  -0.8660255  -0.3162221), wk =   0.0039062

                       cryst. coord.
        k(    1) = (   0.0000000   0.0000000   0.0000000), wk =   0.0039062
        k(    2) = (  -0.0000000  -0.0000000   0.1250000), wk =   0.0078125
        k(    3) = (  -0.0000000  -0.0000000   0.2500000), wk =   0.0078125
        k(    4) = (  -0.0000000  -0.0000000   0.3750000), wk =   0.0078125
        k(    5) = (   0.0000000   0.0000000  -0.5000000), wk =   0.0039062
        k(    6) = (  -0.0000000   0.1250000   0.0000000), wk =   0.0078125
        k(    7) = (   0.0000000   0.1250000   0.1250000), wk =   0.0078125
        k(    8) = (   0.0000000   0.1250000   0.2500000), wk =   0.0078125
        k(    9) = (   0.0000000   0.1250000   0.3750000), wk =   0.0078125
        k(   10) = (   0.0000000   0.1250000  -0.5000000), wk =   0.0078125
        k(   11) = (  -0.0000000   0.1250000  -0.3750000), wk =   0.0078125
        k(   12) = (  -0.0000000   0.1250000  -0.2500000), wk =   0.0078125
        k(   13) = (   0.0000000   0.1250000  -0.1250000), wk =   0.0078125
        k(   14) = (  -0.0000000   0.2500000   0.0000000), wk =   0.0078125
        k(   15) = (   0.0000000   0.2500000   0.1250000), wk =   0.0078125
        k(   16) = (   0.0000000   0.2500000   0.2500000), wk =   0.0078125
        k(   17) = (   0.0000000   0.2500000   0.3750000), wk =   0.0078125
        k(   18) = (  -0.0000000   0.2500000  -0.5000000), wk =   0.0078125
        k(   19) = (  -0.0000000   0.2500000  -0.3750000), wk =   0.0078125
        k(   20) = (   0.0000000   0.2500000  -0.2500000), wk =   0.0078125
        k(   21) = (  -0.0000000   0.2500000  -0.1250000), wk =   0.0078125
        k(   22) = (   0.0000000   0.3750000   0.0000000), wk =   0.0078125
        k(   23) = (   0.0000000   0.3750000   0.1250000), wk =   0.0078125
        k(   24) = (   0.0000000   0.3750000   0.2500000), wk =   0.0078125
        k(   25) = (   0.0000000   0.3750000   0.3750000), wk =   0.0078125
        k(   26) = (  -0.0000000   0.3750000  -0.5000000), wk =   0.0078125
        k(   27) = (  -0.0000000   0.3750000  -0.3750000), wk =   0.0078125
        k(   28) = (   0.0000000   0.3750000  -0.2500000), wk =   0.0078125
        k(   29) = (   0.0000000   0.3750000  -0.1250000), wk =   0.0078125
        k(   30) = (   0.0000000  -0.5000000  -0.0000000), wk =   0.0039062
        k(   31) = (   0.0000000  -0.5000000   0.1250000), wk =   0.0078125
        k(   32) = (   0.0000000  -0.5000000   0.2500000), wk =   0.0078125
        k(   33) = (   0.0000000  -0.5000000   0.3750000), wk =   0.0078125
        k(   34) = (  -0.0000000  -0.5000000  -0.5000000), wk =   0.0039062
        k(   35) = (   0.1250000  -0.0000000   0.0000000), wk =   0.0078125
        k(   36) = (   0.1250000   0.0000000   0.1250000), wk =   0.0078125
        k(   37) = (   0.1250000  -0.0000000   0.2500000), wk =   0.0078125
        k(   38) = (   0.1250000  -0.0000000   0.3750000), wk =   0.0078125
        k(   39) = (   0.1250000  -0.0000000  -0.5000000), wk =   0.0078125
        k(   40) = (   0.1250000  -0.0000000  -0.3750000), wk =   0.0078125
        k(   41) = (   0.1250000  -0.0000000  -0.2500000), wk =   0.0078125
        k(   42) = (   0.1250000  -0.0000000  -0.1250000), wk =   0.0078125
        k(   43) = (   0.1250000   0.1250000   0.0000000), wk =   0.0078125
        k(   44) = (   0.1250000   0.1250000   0.1250000), wk =   0.0078125
        k(   45) = (   0.1250000   0.1250000   0.2500000), wk =   0.0078125
        k(   46) = (   0.1250000   0.1250000   0.3750000), wk =   0.0078125
        k(   47) = (   0.1250000   0.1250000  -0.5000000), wk =   0.0078125
        k(   48) = (   0.1250000   0.1250000  -0.3750000), wk =   0.0078125
        k(   49) = (   0.1250000   0.1250000  -0.2500000), wk =   0.0078125
        k(   50) = (   0.1250000   0.1250000  -0.1250000), wk =   0.0078125
        k(   51) = (   0.1250000   0.2500000  -0.0000000), wk =   0.0078125
        k(   52) = (   0.1250000   0.2500000   0.1250000), wk =   0.0078125
        k(   53) = (   0.1250000   0.2500000   0.2500000), wk =   0.0078125
        k(   54) = (   0.1250000   0.2500000   0.3750000), wk =   0.0078125
        k(   55) = (   0.1250000   0.2500000  -0.5000000), wk =   0.0078125
        k(   56) = (   0.1250000   0.2500000  -0.3750000), wk =   0.0078125
        k(   57) = (   0.1250000   0.2500000  -0.2500000), wk =   0.0078125
        k(   58) = (   0.1250000   0.2500000  -0.1250000), wk =   0.0078125
        k(   59) = (   0.1250000   0.3750000   0.0000000), wk =   0.0078125
        k(   60) = (   0.1250000   0.3750000   0.1250000), wk =   0.0078125
[...]
        k(  246) = (  -0.5000000   0.2500000  -0.2500000), wk =   0.0078125
        k(  247) = (  -0.5000000   0.2500000  -0.1250000), wk =   0.0078125
        k(  248) = (  -0.5000000   0.3750000   0.0000000), wk =   0.0078125
        k(  249) = (  -0.5000000   0.3750000   0.1250000), wk =   0.0078125
        k(  250) = (  -0.5000000   0.3750000   0.2500000), wk =   0.0078125
        k(  251) = (  -0.5000000   0.3750000   0.3750000), wk =   0.0078125
        k(  252) = (  -0.5000000   0.3750000  -0.5000000), wk =   0.0078125
        k(  253) = (  -0.5000000   0.3750000  -0.3750000), wk =   0.0078125
        k(  254) = (  -0.5000000   0.3750000  -0.2500000), wk =   0.0078125
        k(  255) = (  -0.5000000   0.3750000  -0.1250000), wk =   0.0078125
        k(  256) = (  -0.5000000  -0.5000000  -0.0000000), wk =   0.0039062
        k(  257) = (  -0.5000000  -0.5000000   0.1250000), wk =   0.0078125
        k(  258) = (  -0.5000000  -0.5000000   0.2500000), wk =   0.0078125
        k(  259) = (  -0.5000000  -0.5000000   0.3750000), wk =   0.0078125
        k(  260) = (  -0.5000000  -0.5000000  -0.5000000), wk =   0.0039062

     Check: negative core charge=   -0.000003

     Initial potential from superposition of free atoms

     starting charge   51.99974, renormalised to   52.00000
     Starting wfcs are   34 randomized atomic wfcs

     Self-consistent Calculation

     iteration #  1     ecut=    80.00 Ry     beta= 0.50
     Davidson diagonalization with overlap
     ethr =  1.00E-02,  avg # of iterations =  1.0

     total energy              =    -986.76773845 Ry
     Harris-Foulkes estimate   =    -987.28871010 Ry
     estimated scf accuracy    <       0.81994569 Ry

[...]

     total energy              =    -987.07982194 Ry
     Harris-Foulkes estimate   =    -987.07982129 Ry
     estimated scf accuracy    <       0.00000402 Ry

     iteration #  7     ecut=    80.00 Ry     beta= 0.50
     Davidson diagonalization with overlap
     ethr =  7.73E-09,  avg # of iterations =  2.0

     End of self-consistent calculation

          k = 0.0000 0.0000 0.0000 (  3861 PWs)   bands (ev):

  -114.3143-114.3139 -68.6846 -68.6810 -68.6675 -68.6675 -68.6667 -68.6667
    -9.2617  -8.4733   2.9872   2.9872   3.1363   3.1483   3.1483   3.1826
     4.2295   4.2295   4.4555   4.4555   4.7734   8.0135   8.0135   8.6610
     8.7907   8.7907

     occupation numbers
     1.0000   1.0000   1.0000   1.0000   1.0000   1.0000   1.0000   1.0000
     1.0000   1.0000   1.0000   1.0000   1.0000   1.0000   1.0000   1.0000
     1.0000   1.0000   1.0000   1.0000   1.0000   1.0000   1.0000   1.0000
     1.0000   1.0000

          k =-0.0000-0.0000 0.0791 (  3879 PWs)   bands (ev):

[...]

          k = 0.3750 0.0722-0.0791 (  3851 PWs)   bands (ev):

[...]

          k =-0.5000-0.8660-0.3162 (  3852 PWs)   bands (ev):

  -114.3142-114.3139 -68.6828 -68.6825 -68.6694 -68.6690 -68.6679 -68.6675
    -8.4065  -8.4059   2.5696   2.5697   3.5129   3.5130   3.5885   3.5888
     4.4245   4.4248   4.5205   4.5207   4.9831   4.9833   7.1909   7.1912
     7.4877   7.4880

     occupation numbers
     1.0000   1.0000   1.0000   1.0000   1.0000   1.0000   1.0000   1.0000
     1.0000   1.0000   1.0000   1.0000   1.0000   1.0000   1.0000   1.0000
     1.0000   1.0000   1.0000   1.0000   1.0000   1.0000   1.0000   1.0000
     1.0000   1.0000

     highest occupied level (ev):     8.7907

!    total energy              =    -987.07982213 Ry
     Harris-Foulkes estimate   =    -987.07982216 Ry
     estimated scf accuracy    <       0.00000007 Ry

     The total energy is the sum of the following terms:

     one-electron contribution =    -803.31665061 Ry
     hartree contribution      =     423.10179498 Ry
     xc contribution           =     -98.07964300 Ry
     ewald contribution        =    -508.78532350 Ry

     convergence has been achieved in   7 iterations

     Forces acting on atoms (cartesian axes, Ry/au):

     atom    1 type  2   force =    -0.00000263   -0.00000080    0.00525978
     atom    2 type  2   force =    -0.00000142   -0.00000185    0.00527919
     atom    3 type  1   force =     0.00000055    0.00000372   -0.00519137
     atom    4 type  1   force =     0.00000350   -0.00000107   -0.00534760
     The non-local contrib.  to forces
     atom    1 type  2   force =     0.00000139   -0.00000294    0.00096958
     atom    2 type  2   force =     0.00000145    0.00000171    0.00097554
     atom    3 type  1   force =     0.00000163   -0.00000141    0.02749539
     atom    4 type  1   force =     0.00000347   -0.00000088    0.02745334
     The ionic contribution  to forces
     atom    1 type  2   force =    -0.00001660    0.00003861   -0.03495501
     atom    2 type  2   force =    -0.00001469   -0.00001681   -0.03495056
     atom    3 type  1   force =     0.00001611    0.00000076    0.03495552
     atom    4 type  1   force =     0.00001518   -0.00002256    0.03495006
     The local contribution  to forces
     atom    1 type  2   force =     0.00001568   -0.00003693    0.03927428
     atom    2 type  2   force =     0.00001109    0.00001428    0.03922949
     atom    3 type  1   force =    -0.00001678   -0.00000010   -0.06777624
     atom    4 type  1   force =    -0.00001954    0.00002463   -0.06760876
     The core correction contribution to forces
     atom    1 type  2   force =    -0.00000001   -0.00000000    0.00001247
     atom    2 type  2   force =    -0.00000002   -0.00000003    0.00001091
     atom    3 type  1   force =     0.00000000    0.00000000    0.00000000
     atom    4 type  1   force =     0.00000000    0.00000000    0.00000000
     The Hubbard contrib.    to forces
     atom    1 type  2   force =     0.00000000    0.00000000    0.00000000
     atom    2 type  2   force =     0.00000000    0.00000000    0.00000000
     atom    3 type  1   force =     0.00000000    0.00000000    0.00000000
     atom    4 type  1   force =     0.00000000    0.00000000    0.00000000
     The SCF correction term to forces
     atom    1 type  2   force =     0.00000000    0.00000000    0.00000000
     atom    2 type  2   force =     0.00000000    0.00000000    0.00000000
     atom    3 type  1   force =     0.00000000    0.00000000    0.00000000
     atom    4 type  1   force =     0.00000000    0.00000000    0.00000000

     Total force =     0.000000     Total SCF correction =     0.000000

     Computing stress (Cartesian axis) and pressure

          total   stress  (Ry/bohr**3)                   (kbar)     P=   -0.99
  -0.00000801  -0.00000001  -0.00000001         -1.18     -0.00     -0.00
  -0.00000001  -0.00000800  -0.00000001         -0.00     -1.18     -0.00
  -0.00000001  -0.00000001  -0.00000410         -0.00     -0.00     -0.60

     kinetic stress (kbar)  33879.71     -0.00      0.00
                               -0.00  33879.71     -0.00
                                0.00     -0.00  33995.39

     local   stress (kbar)  -3854.82     -0.03      0.03
                               -0.03  -3854.98     -0.09
                                0.03     -0.09  -6178.75

     nonloc. stress (kbar)  -1673.88     -0.00      0.00
                               -0.00  -1673.88      0.00
                                0.00      0.00  -1721.58

     hartree stress (kbar)  64643.28      0.01     -0.01
                                0.01  64643.35      0.04
                               -0.01      0.04  66067.41

     exc-cor stress (kbar) -14162.88      0.00      0.00
                                0.00 -14162.88      0.00
                                0.00      0.00 -14164.53

     corecor stress (kbar)   -249.22     -0.00      0.00
                               -0.00   -249.22      0.00
                                0.00      0.00   -249.43

     ewald   stress (kbar) -78583.36      0.02     -0.02
                                0.02 -78583.26      0.05
                               -0.02      0.05 -77749.12

     hubbard stress (kbar)      0.00      0.00      0.00
                                0.00      0.00      0.00
                                0.00      0.00      0.00

     london  stress (kbar)      0.00      0.00      0.00
                                0.00      0.00      0.00
                                0.00      0.00      0.00

     DFT-D3  stress (kbar)      0.00      0.00      0.00
                                0.00      0.00      0.00
                                0.00      0.00      0.00

     XDM     stress (kbar)      0.00      0.00      0.00
                                0.00      0.00      0.00
                                0.00      0.00      0.00

     dft-nl  stress (kbar)      0.00      0.00      0.00
                                0.00      0.00      0.00
                                0.00      0.00      0.00

     TS-vdW  stress (kbar)      0.00      0.00      0.00
                                0.00      0.00      0.00
                                0.00      0.00      0.00

     Writing output data file ZnO.save/

     General routines

     Parallel routines

   This run was terminated on:  20:43:42  15Jun2022

   JOB DONE.