     Program PWSCF v.6.4.1 starts on 16Jun2022 at 14:31:26

     K-points division:     npool     =       4
     R & G space division:  proc/nbgrp/npool/nimage =      16
     Waiting for input...
     Reading input from standard input

     Current dimensions of program PWSCF are:
     Max number of different atomic species (ntypx) = 10
     Max number of k-points (npk) =  40000
     Max angular momentum in pseudopotentials (lmaxx) =  3

NOTICE: Bravais lattice has wrong number (10) of symmetries - symmetries are disabled

     bravais-lattice index     =            0
     lattice parameter (alat)  =       6.3132  a.u.
     unit-cell volume          =     313.4577 (a.u.)^3
     number of atoms/cell      =            4
     number of atomic types    =            2
     number of electrons       =        52.00
     number of Kohn-Sham states=           26
     kinetic-energy cutoff     =      80.0000  Ry
     charge density cutoff     =     600.0000  Ry
     convergence threshold     =      1.0E-06
     mixing beta               =       0.5000
     number of iterations used =            8  plain     mixing
     Exchange-correlation      = SLA  PW   PSX  PSC ( 1  4 10  8 0 0)
     nstep                     =          200

     celldm(1)=   6.313236  celldm(2)=   0.000000  celldm(3)=   0.000000
     celldm(4)=   0.000000  celldm(5)=   0.000000  celldm(6)=   0.000000

     crystal axes: (cart. coord. in units of alat)
               a(1) = (   1.000000   0.000000   0.000000 )
               a(2) = (  -0.500000   0.866026  -0.000000 )
               a(3) = (  -0.000000  -0.000000   1.438442 )

     reciprocal axes: (cart. coord. in units 2 pi/alat)
               b(1) = (  1.000000  0.577350  0.000000 )
               b(2) = ( -0.000000  1.154700  0.000000 )
               b(3) = ( -0.000000  0.000000  0.695197 )

     PseudoPot. # 1 for Zn read from file:
     ./GBRV_PBEsol/zn_pbesol_v1.uspp.F.UPF
     MD5 check sum: 7d8615e52efe7c1e2b1899de8658bae2
     Pseudo is Ultrasoft, Zval = 20.0
     Generated by new atomic code, or converted to UPF format
     Using radial grid of  943 points,  6 beta functions with:
                l(1) =   0
                l(2) =   0
                l(3) =   1
                l(4) =   1
                l(5) =   2
                l(6) =   2
     Q(r) pseudized with  8 coefficients,  rinner =    1.100   1.100   1.100
                                                       1.100   1.100

     PseudoPot. # 2 for O  read from file:
     ./GBRV_PBEsol/o_pbesol_v1.2.uspp.F.UPF
     MD5 check sum: 501638753501ef6325af9037351f7734
     Pseudo is Ultrasoft + core correction, Zval =  6.0
     Generated by new atomic code, or converted to UPF format
     Using radial grid of  737 points,  5 beta functions with:
                l(1) =   0
                l(2) =   0
                l(3) =   1
                l(4) =   1
                l(5) =   2
     Q(r) pseudized with  8 coefficients,  rinner =    0.900   0.900   0.900
                                                       0.900   0.900

     atomic species   valence    mass     pseudopotential
        Zn            20.00    65.38000     Zn( 1.00)
        O              6.00    15.99900     O ( 1.00)

     No symmetry found

                                    s                        frac. trans.

      isym =  1     identity

 cryst.   s( 1) = (     1          0          0      )
                  (     0          1          0      )
                  (     0          0          1      )

 cart.    s( 1) = (  1.0000000 -0.0000000  0.0000000 )
                  ( -0.0000000  1.0000000 -0.0000000 )
                  ( -0.0000000  0.0000000  1.0000000 )

   Cartesian axes

     site n.     atom                  positions (alat units)
         1           O   tau(   1) = (   0.5000002   0.2886755   0.0105666  )
         2           O   tau(   2) = (   0.0000001   0.5773493   0.7297871  )
         3           Zn  tau(   3) = (   0.5000000   0.2886746   0.6420544  )
         4           Zn  tau(   4) = (  -0.0000002   0.5773508   1.3612751  )

   Crystallographic axes

     site n.     atom                  positions (cryst. coord.)
         1           O   tau(   1) = (  0.6666670  0.3333337  0.0073459  )
         2           O   tau(   2) = (  0.3333329  0.6666657  0.5073458  )
         3           Zn  tau(   3) = (  0.6666664  0.3333329  0.4463542  )
         4           Zn  tau(   4) = (  0.3333336  0.6666677  0.9463542  )

     number of k points=   260
                       cart. coord. in units 2pi/alat
        k(    1) = (   0.0000000   0.0000000   0.0000000), wk =   0.0039062
        k(    2) = (  -0.0000000   0.0000000   0.0868996), wk =   0.0078125
        k(    3) = (  -0.0000000   0.0000000   0.1737992), wk =   0.0078125
        k(    4) = (  -0.0000000   0.0000000   0.2606988), wk =   0.0078125
        k(    5) = (   0.0000000  -0.0000001  -0.3475984), wk =   0.0039062
        k(    6) = (  -0.0000000   0.1443375   0.0000000), wk =   0.0078125
        k(    7) = (  -0.0000000   0.1443376   0.0868997), wk =   0.0078125
        k(    8) = (  -0.0000000   0.1443376   0.1737993), wk =   0.0078125
        k(    9) = (  -0.0000000   0.1443376   0.2606989), wk =   0.0078125
        k(   10) = (   0.0000000   0.1443375  -0.3475984), wk =   0.0078125
        k(   11) = (  -0.0000000   0.1443375  -0.2606988), wk =   0.0078125
        k(   12) = (  -0.0000000   0.1443375  -0.1737992), wk =   0.0078125
        k(   13) = (  -0.0000000   0.1443375  -0.0868996), wk =   0.0078125
        k(   14) = (  -0.0000000   0.2886751   0.0000001), wk =   0.0078125
        k(   15) = (  -0.0000000   0.2886751   0.0868997), wk =   0.0078125
        k(   16) = (  -0.0000000   0.2886751   0.1737993), wk =   0.0078125
        k(   17) = (  -0.0000000   0.2886751   0.2606989), wk =   0.0078125
        k(   18) = (  -0.0000000   0.2886750  -0.3475983), wk =   0.0078125
        k(   19) = (  -0.0000000   0.2886750  -0.2606987), wk =   0.0078125
        k(   20) = (  -0.0000000   0.2886751  -0.1737991), wk =   0.0078125
        k(   21) = (  -0.0000000   0.2886751  -0.0868995), wk =   0.0078125
        k(   22) = (  -0.0000000   0.4330126   0.0000001), wk =   0.0078125
        k(   23) = (  -0.0000000   0.4330126   0.0868997), wk =   0.0078125
        k(   24) = (  -0.0000000   0.4330127   0.1737993), wk =   0.0078125
        k(   25) = (  -0.0000000   0.4330127   0.2606990), wk =   0.0078125
        k(   26) = (  -0.0000000   0.4330126  -0.3475983), wk =   0.0078125
        k(   27) = (  -0.0000000   0.4330126  -0.2606987), wk =   0.0078125
        k(   28) = (  -0.0000000   0.4330126  -0.1737991), wk =   0.0078125
        k(   29) = (  -0.0000000   0.4330126  -0.0868995), wk =   0.0078125
        k(   30) = (   0.0000000  -0.5773502  -0.0000002), wk =   0.0039062
        k(   31) = (   0.0000000  -0.5773502   0.0868994), wk =   0.0078125
        k(   32) = (   0.0000000  -0.5773501   0.1737990), wk =   0.0078125
        k(   33) = (   0.0000000  -0.5773501   0.2606986), wk =   0.0078125
        k(   34) = (   0.0000000  -0.5773502  -0.3475986), wk =   0.0039062
        k(   35) = (   0.1250000   0.0721688   0.0000000), wk =   0.0078125
        k(   36) = (   0.1250000   0.0721688   0.0868996), wk =   0.0078125
        k(   37) = (   0.1250000   0.0721688   0.1737992), wk =   0.0078125
        k(   38) = (   0.1250000   0.0721688   0.2606988), wk =   0.0078125
        k(   39) = (   0.1250000   0.0721687  -0.3475984), wk =   0.0078125
        k(   40) = (   0.1250000   0.0721687  -0.2606988), wk =   0.0078125
        k(   41) = (   0.1250000   0.0721687  -0.1737992), wk =   0.0078125
        k(   42) = (   0.1250000   0.0721688  -0.0868996), wk =   0.0078125
        k(   43) = (   0.1250000   0.2165063   0.0000001), wk =   0.0078125
        k(   44) = (   0.1250000   0.2165063   0.0868997), wk =   0.0078125
        k(   45) = (   0.1250000   0.2165063   0.1737993), wk =   0.0078125
        k(   46) = (   0.1250000   0.2165063   0.2606989), wk =   0.0078125
        k(   47) = (   0.1250000   0.2165063  -0.3475983), wk =   0.0078125
        k(   48) = (   0.1250000   0.2165063  -0.2606987), wk =   0.0078125
        k(   49) = (   0.1250000   0.2165063  -0.1737991), wk =   0.0078125
        k(   50) = (   0.1250000   0.2165063  -0.0868995), wk =   0.0078125
        k(   51) = (   0.1250000   0.3608439   0.0000001), wk =   0.0078125
        k(   52) = (   0.1250000   0.3608439   0.0868997), wk =   0.0078125
        k(   53) = (   0.1250000   0.3608439   0.1737993), wk =   0.0078125
        k(   54) = (   0.1250000   0.3608439   0.2606989), wk =   0.0078125
        k(   55) = (   0.1250000   0.3608438  -0.3475983), wk =   0.0078125
        k(   56) = (   0.1250000   0.3608438  -0.2606987), wk =   0.0078125
        k(   57) = (   0.1250000   0.3608438  -0.1737991), wk =   0.0078125
        k(   58) = (   0.1250000   0.3608438  -0.0868995), wk =   0.0078125
        k(   59) = (   0.1250000   0.5051814   0.0000002), wk =   0.0078125
        k(   60) = (   0.1250000   0.5051814   0.0868998), wk =   0.0078125
[...]
        k(  246) = (  -0.5000000  -0.0000000  -0.1737992), wk =   0.0078125
        k(  247) = (  -0.5000000   0.0000000  -0.0868996), wk =   0.0078125
        k(  248) = (  -0.5000000   0.1443376   0.0000000), wk =   0.0078125
        k(  249) = (  -0.5000000   0.1443376   0.0868996), wk =   0.0078125
        k(  250) = (  -0.5000000   0.1443376   0.1737992), wk =   0.0078125
        k(  251) = (  -0.5000000   0.1443376   0.2606988), wk =   0.0078125
        k(  252) = (  -0.5000000   0.1443375  -0.3475984), wk =   0.0078125
        k(  253) = (  -0.5000000   0.1443375  -0.2606988), wk =   0.0078125
        k(  254) = (  -0.5000000   0.1443375  -0.1737992), wk =   0.0078125
        k(  255) = (  -0.5000000   0.1443375  -0.0868996), wk =   0.0078125
        k(  256) = (  -0.5000000  -0.8660252  -0.0000003), wk =   0.0039062
        k(  257) = (  -0.5000000  -0.8660252   0.0868993), wk =   0.0078125
        k(  258) = (  -0.5000000  -0.8660252   0.1737989), wk =   0.0078125
        k(  259) = (  -0.5000000  -0.8660252   0.2606985), wk =   0.0078125
        k(  260) = (  -0.5000000  -0.8660253  -0.3475987), wk =   0.0039062

                       cryst. coord.
        k(    1) = (   0.0000000   0.0000000   0.0000000), wk =   0.0039062
        k(    2) = (   0.0000000  -0.0000000   0.1250000), wk =   0.0078125
        k(    3) = (   0.0000000  -0.0000000   0.2500000), wk =   0.0078125
        k(    4) = (  -0.0000000  -0.0000000   0.3750000), wk =   0.0078125
        k(    5) = (  -0.0000000   0.0000000  -0.5000000), wk =   0.0039062
        k(    6) = (   0.0000000   0.1250000   0.0000000), wk =   0.0078125
        k(    7) = (  -0.0000000   0.1250000   0.1250000), wk =   0.0078125
        k(    8) = (  -0.0000000   0.1250000   0.2500000), wk =   0.0078125
        k(    9) = (  -0.0000000   0.1250000   0.3750000), wk =   0.0078125
        k(   10) = (  -0.0000000   0.1250000  -0.5000000), wk =   0.0078125
        k(   11) = (   0.0000000   0.1250000  -0.3750000), wk =   0.0078125
[...]
        k(   24) = (  -0.0000000   0.4330493   0.1738347), wk =   0.0078125
        k(   25) = (  -0.0000000   0.4330492   0.2607521), wk =   0.0078125
        k(   26) = (  -0.0000000   0.4330495  -0.3476697), wk =   0.0078125
        k(   27) = (  -0.0000000   0.4330495  -0.2607523), wk =   0.0078125
        k(   28) = (  -0.0000000   0.4330494  -0.1738349), wk =   0.0078125
        k(   29) = (  -0.0000000   0.4330494  -0.0869175), wk =   0.0078125
        k(   30) = (   0.0000000  -0.5773991   0.0000002), wk =   0.0039062
        k(   31) = (   0.0000000  -0.5773992   0.0869176), wk =   0.0078125
        k(   32) = (   0.0000000  -0.5773992   0.1738350), wk =   0.0078125
        k(   33) = (   0.0000000  -0.5773993   0.2607523), wk =   0.0078125
        k(   34) = (   0.0000000  -0.5773990  -0.3476694), wk =   0.0039062
        k(   35) = (   0.1250106   0.0721749  -0.0000000), wk =   0.0078125
        k(   36) = (   0.1250106   0.0721749   0.0869174), wk =   0.0078125
        k(   37) = (   0.1250106   0.0721748   0.1738348), wk =   0.0078125
        k(   38) = (   0.1250106   0.0721748   0.2607522), wk =   0.0078125
        k(   39) = (   0.1250106   0.0721751  -0.3476696), wk =   0.0078125
        k(   40) = (   0.1250106   0.0721750  -0.2607522), wk =   0.0078125
        k(   41) = (   0.1250106   0.0721750  -0.1738348), wk =   0.0078125
        k(   42) = (   0.1250106   0.0721749  -0.0869174), wk =   0.0078125
        k(   43) = (   0.1250106   0.2165247  -0.0000001), wk =   0.0078125
        k(   44) = (   0.1250106   0.2165246   0.0869173), wk =   0.0078125
        k(   45) = (   0.1250106   0.2165246   0.1738347), wk =   0.0078125
        k(   46) = (   0.1250106   0.2165246   0.2607521), wk =   0.0078125
        k(   47) = (   0.1250106   0.2165248  -0.3476696), wk =   0.0078125
        k(   48) = (   0.1250106   0.2165248  -0.2607522), wk =   0.0078125
        k(   49) = (   0.1250106   0.2165248  -0.1738348), wk =   0.0078125
        k(   50) = (   0.1250106   0.2165247  -0.0869175), wk =   0.0078125
        k(   51) = (   0.1250106   0.3608745  -0.0000001), wk =   0.0078125
        k(   52) = (   0.1250106   0.3608744   0.0869173), wk =   0.0078125
        k(   53) = (   0.1250106   0.3608744   0.1738347), wk =   0.0078125
        k(   54) = (   0.1250106   0.3608743   0.2607521), wk =   0.0078125
        k(   55) = (   0.1250106   0.3608746  -0.3476697), wk =   0.0078125
        k(   56) = (   0.1250106   0.3608746  -0.2607523), wk =   0.0078125
        k(   57) = (   0.1250106   0.3608745  -0.1738349), wk =   0.0078125
        k(   58) = (   0.1250106   0.3608745  -0.0869175), wk =   0.0078125
        k(   59) = (   0.1250106   0.5052242  -0.0000001), wk =   0.0078125
        k(   60) = (   0.1250106   0.5052242   0.0869173), wk =   0.0078125
[...]
        k(  246) = (  -0.5000424   0.0000001  -0.1738348), wk =   0.0078125
        k(  247) = (  -0.5000424   0.0000000  -0.0869174), wk =   0.0078125
        k(  248) = (  -0.5000424   0.1443498  -0.0000001), wk =   0.0078125
        k(  249) = (  -0.5000424   0.1443498   0.0869173), wk =   0.0078125
        k(  250) = (  -0.5000424   0.1443497   0.1738347), wk =   0.0078125
        k(  251) = (  -0.5000424   0.1443497   0.2607521), wk =   0.0078125
        k(  252) = (  -0.5000424   0.1443500  -0.3476696), wk =   0.0078125
        k(  253) = (  -0.5000424   0.1443499  -0.2607522), wk =   0.0078125
        k(  254) = (  -0.5000424   0.1443499  -0.1738348), wk =   0.0078125
        k(  255) = (  -0.5000424   0.1443498  -0.0869175), wk =   0.0078125
        k(  256) = (  -0.5000424  -0.8660987   0.0000002), wk =   0.0039062
        k(  257) = (  -0.5000424  -0.8660987   0.0869176), wk =   0.0078125
        k(  258) = (  -0.5000424  -0.8660988   0.1738350), wk =   0.0078125
        k(  259) = (  -0.5000424  -0.8660988   0.2607524), wk =   0.0078125
        k(  260) = (  -0.5000424  -0.8660985  -0.3476693), wk =   0.0039062

                       cryst. coord.
        k(    1) = (   0.0000000   0.0000000   0.0000000), wk =   0.0039062
        k(    2) = (   0.0000000   0.0000000   0.1250000), wk =   0.0078125
        k(    3) = (   0.0000000   0.0000000   0.2500000), wk =   0.0078125
        k(    4) = (   0.0000000   0.0000000   0.3750000), wk =   0.0078125
        k(    5) = (  -0.0000000  -0.0000000  -0.5000000), wk =   0.0039062
        k(    6) = (   0.0000000   0.1250000  -0.0000000), wk =   0.0078125
        k(    7) = (  -0.0000000   0.1250000   0.1250000), wk =   0.0078125
        k(    8) = (   0.0000000   0.1250000   0.2500000), wk =   0.0078125
        k(    9) = (   0.0000000   0.1250000   0.3750000), wk =   0.0078125
        k(   10) = (  -0.0000000   0.1250000  -0.5000000), wk =   0.0078125
        k(   11) = (  -0.0000000   0.1250000  -0.3750000), wk =   0.0078125
        k(   12) = (  -0.0000000   0.1250000  -0.2500000), wk =   0.0078125
        k(   13) = (   0.0000000   0.1250000  -0.1250000), wk =   0.0078125
        k(   14) = (   0.0000000   0.2500000  -0.0000000), wk =   0.0078125
        k(   15) = (   0.0000000   0.2500000   0.1250000), wk =   0.0078125
        k(   16) = (  -0.0000000   0.2500000   0.2500000), wk =   0.0078125
        k(   17) = (   0.0000000   0.2500000   0.3750000), wk =   0.0078125
        k(   18) = (  -0.0000000   0.2500000  -0.5000000), wk =   0.0078125
        k(   19) = (   0.0000000   0.2500000  -0.3750000), wk =   0.0078125
        k(   20) = (   0.0000000   0.2500000  -0.2500000), wk =   0.0078125
        k(   21) = (   0.0000000   0.2500000  -0.1250000), wk =   0.0078125
        k(   22) = (  -0.0000000   0.3750000  -0.0000000), wk =   0.0078125
        k(   23) = (  -0.0000000   0.3750000   0.1250000), wk =   0.0078125
        k(   24) = (  -0.0000000   0.3750000   0.2500000), wk =   0.0078125
        k(   25) = (  -0.0000000   0.3750000   0.3750000), wk =   0.0078125
        k(   26) = (  -0.0000000   0.3750000  -0.5000000), wk =   0.0078125
        k(   27) = (  -0.0000000   0.3750000  -0.3750000), wk =   0.0078125
        k(   28) = (  -0.0000000   0.3750000  -0.2500000), wk =   0.0078125
        k(   29) = (  -0.0000000   0.3750000  -0.1250000), wk =   0.0078125
        k(   30) = (  -0.0000000  -0.5000000   0.0000000), wk =   0.0039062
        k(   31) = (  -0.0000000  -0.5000000   0.1250000), wk =   0.0078125
        k(   32) = (  -0.0000000  -0.5000000   0.2500000), wk =   0.0078125
        k(   33) = (  -0.0000000  -0.5000000   0.3750000), wk =   0.0078125
        k(   34) = (   0.0000000  -0.5000000  -0.5000000), wk =   0.0039062
        k(   35) = (   0.1250000   0.0000000   0.0000000), wk =   0.0078125
        k(   36) = (   0.1250000   0.0000000   0.1250000), wk =   0.0078125
        k(   37) = (   0.1250000  -0.0000000   0.2500000), wk =   0.0078125
        k(   38) = (   0.1250000   0.0000000   0.3750000), wk =   0.0078125
        k(   39) = (   0.1250000   0.0000000  -0.5000000), wk =   0.0078125
        k(   40) = (   0.1250000   0.0000000  -0.3750000), wk =   0.0078125
        k(   41) = (   0.1250000   0.0000000  -0.2500000), wk =   0.0078125
        k(   42) = (   0.1250000   0.0000000  -0.1250000), wk =   0.0078125
        k(   43) = (   0.1250000   0.1250000   0.0000000), wk =   0.0078125
        k(   44) = (   0.1250000   0.1250000   0.1250000), wk =   0.0078125
        k(   45) = (   0.1250000   0.1250000   0.2500000), wk =   0.0078125
        k(   46) = (   0.1250000   0.1250000   0.3750000), wk =   0.0078125
        k(   47) = (   0.1250000   0.1250000  -0.5000000), wk =   0.0078125
        k(   48) = (   0.1250000   0.1250000  -0.3750000), wk =   0.0078125
        k(   49) = (   0.1250000   0.1250000  -0.2500000), wk =   0.0078125
        k(   50) = (   0.1250000   0.1250000  -0.1250000), wk =   0.0078125
        k(   51) = (   0.1250000   0.2500000  -0.0000000), wk =   0.0078125
        k(   52) = (   0.1250000   0.2500000   0.1250000), wk =   0.0078125
        k(   53) = (   0.1250000   0.2500000   0.2500000), wk =   0.0078125
        k(   54) = (   0.1250000   0.2500000   0.3750000), wk =   0.0078125
        k(   55) = (   0.1250000   0.2500000  -0.5000000), wk =   0.0078125
        k(   56) = (   0.1250000   0.2500000  -0.3750000), wk =   0.0078125
        k(   57) = (   0.1250000   0.2500000  -0.2500000), wk =   0.0078125
        k(   58) = (   0.1250000   0.2500000  -0.1250000), wk =   0.0078125
        k(   59) = (   0.1250000   0.3750000  -0.0000000), wk =   0.0078125
        k(   60) = (   0.1250000   0.3750000   0.1250000), wk =   0.0078125
[...]
        k(  246) = (  -0.5000000   0.2500000  -0.2500000), wk =   0.0078125
        k(  247) = (  -0.5000000   0.2500000  -0.1250000), wk =   0.0078125
        k(  248) = (  -0.5000000   0.3750000  -0.0000000), wk =   0.0078125
        k(  249) = (  -0.5000000   0.3750000   0.1250000), wk =   0.0078125
        k(  250) = (  -0.5000000   0.3750000   0.2500000), wk =   0.0078125
        k(  251) = (  -0.5000000   0.3750000   0.3750000), wk =   0.0078125
        k(  252) = (  -0.5000000   0.3750000  -0.5000000), wk =   0.0078125
        k(  253) = (  -0.5000000   0.3750000  -0.3750000), wk =   0.0078125
        k(  254) = (  -0.5000000   0.3750000  -0.2500000), wk =   0.0078125
        k(  255) = (  -0.5000000   0.3750000  -0.1250000), wk =   0.0078125
        k(  256) = (  -0.5000000  -0.5000000  -0.0000000), wk =   0.0039062
        k(  257) = (  -0.5000000  -0.5000000   0.1250000), wk =   0.0078125
        k(  258) = (  -0.5000000  -0.5000000   0.2500000), wk =   0.0078125
        k(  259) = (  -0.5000000  -0.5000000   0.3750000), wk =   0.0078125
        k(  260) = (  -0.5000000  -0.5000000  -0.5000000), wk =   0.0039062

     Check: negative core charge=   -0.000003

     Initial potential from superposition of free atoms

     starting charge   51.99974, renormalised to   52.00000
     Starting wfcs are   34 randomized atomic wfcs

     Self-consistent Calculation

[...]

     total energy              =    -987.06895463 Ry
     Harris-Foulkes estimate   =    -987.06895364 Ry
     estimated scf accuracy    <       0.00000210 Ry

     iteration #  7     ecut=    80.00 Ry     beta= 0.50
     Davidson diagonalization with overlap
     ethr =  4.03E-09,  avg # of iterations =  2.0

     End of self-consistent calculation

[...]

          k = 0.3750 0.0722-0.0869 (  3779 PWs)   bands (ev):

[...]

          k =-0.5000-0.8661-0.3477 (  3792 PWs)   bands (ev):

  -114.1103-114.1103 -68.5007 -68.5007 -68.4544 -68.4544 -68.4533 -68.4533
    -8.1208  -8.1208   2.7391   2.7391   3.6907   3.6907   3.7734   3.7735
     4.5775   4.5775   4.7088   4.7088   5.3056   5.3056   7.1583   7.1583
     8.2284   8.2285

     occupation numbers
     1.0000   1.0000   1.0000   1.0000   1.0000   1.0000   1.0000   1.0000
     1.0000   1.0000   1.0000   1.0000   1.0000   1.0000   1.0000   1.0000
     1.0000   1.0000   1.0000   1.0000   1.0000   1.0000   1.0000   1.0000
     1.0000   1.0000

     highest occupied level (ev):     8.9874

!    total energy              =    -987.06895479 Ry
     Harris-Foulkes estimate   =    -987.06895480 Ry
     estimated scf accuracy    <       0.00000002 Ry

     The total energy is the sum of the following terms:

     one-electron contribution =    -797.57637761 Ry
     hartree contribution      =     420.67196831 Ry
     xc contribution           =     -98.08706573 Ry
     ewald contribution        =    -512.07747976 Ry

     convergence has been achieved in   7 iterations

     Forces acting on atoms (cartesian axes, Ry/au):

     atom    1 type  2   force =    -0.00000011   -0.00000083    0.01242108
     atom    2 type  2   force =     0.00000025   -0.00000040    0.01242069
     atom    3 type  1   force =    -0.00000047    0.00000041   -0.01242448
     atom    4 type  1   force =     0.00000033    0.00000082   -0.01241729
     The non-local contrib.  to forces
     atom    1 type  2   force =     0.00000111   -0.00000276    0.05182322
     atom    2 type  2   force =     0.00000031    0.00000007    0.05182364
     atom    3 type  1   force =     0.00000071   -0.00000391    0.13143542
     atom    4 type  1   force =     0.00000200   -0.00000044    0.13143420
     The ionic contribution  to forces
     atom    1 type  2   force =    -0.00001881    0.00002978   -0.76255705
     atom    2 type  2   force =    -0.00000263    0.00001089   -0.76255615
     atom    3 type  1   force =     0.00000155   -0.00002397    0.76256100
     atom    4 type  1   force =     0.00001988   -0.00001670    0.76255221
     The local contribution  to forces
     atom    1 type  2   force =     0.00001752   -0.00002790    0.72359520
     atom    2 type  2   force =     0.00000242   -0.00001133    0.72359381
     atom    3 type  1   force =    -0.00000268    0.00002848   -0.90665262
     atom    4 type  1   force =    -0.00002161    0.00001784   -0.90665389
     The core correction contribution to forces
     atom    1 type  2   force =    -0.00000000    0.00000001   -0.00028360
     atom    2 type  2   force =     0.00000000   -0.00000002   -0.00028358
     atom    3 type  1   force =     0.00000000    0.00000000    0.00000000
     atom    4 type  1   force =     0.00000000    0.00000000    0.00000000
     The Hubbard contrib.    to forces
     atom    1 type  2   force =     0.00000000    0.00000000    0.00000000
     atom    2 type  2   force =     0.00000000    0.00000000    0.00000000
     atom    3 type  1   force =     0.00000000    0.00000000    0.00000000
     atom    4 type  1   force =     0.00000000    0.00000000    0.00000000
     The SCF correction term to forces
     atom    1 type  2   force =     0.00000000    0.00000000    0.00000000
     atom    2 type  2   force =     0.00000000    0.00000000    0.00000000
     atom    3 type  1   force =     0.00000000    0.00000000    0.00000000
     atom    4 type  1   force =     0.00000000    0.00000000    0.00000000

     Total force =     0.000000     Total SCF correction =     0.000000

     Computing stress (Cartesian axis) and pressure

          total   stress  (Ry/bohr**3)                   (kbar)     P=    0.43
   0.00000460   0.00000000  -0.00000000          0.68      0.00     -0.00
   0.00000000   0.00000459  -0.00000001          0.00      0.68     -0.00
  -0.00000000  -0.00000001  -0.00000048         -0.00     -0.00     -0.07

     kinetic stress (kbar)  34358.94     -0.00      0.00
                               -0.00  34358.93     -0.00
                                0.00     -0.00  34757.49

     local   stress (kbar)  -3018.02     -0.05      0.02
                               -0.05  -3018.16     -0.07
                                0.02     -0.07  -5378.36

     nonloc. stress (kbar)  -1673.34      0.00     -0.00
                                0.00  -1673.34      0.00
                               -0.00      0.00  -1833.09

     hartree stress (kbar)  65066.97      0.02     -0.01
                                0.02  65067.03      0.03
                               -0.01      0.03  67360.43

     exc-cor stress (kbar) -14400.23      0.00     -0.00
                                0.00 -14400.23      0.00
                               -0.00      0.00 -14406.37

     corecor stress (kbar)   -253.23      0.00     -0.00
                                0.00   -253.23      0.00
                               -0.00      0.00   -254.00

     ewald   stress (kbar) -80080.41      0.03     -0.01
                                0.03 -80080.33      0.04
                               -0.01      0.04 -80246.18

     hubbard stress (kbar)      0.00      0.00      0.00
                                0.00      0.00      0.00
                                0.00      0.00      0.00

     london  stress (kbar)      0.00      0.00      0.00
                                0.00      0.00      0.00
                                0.00      0.00      0.00

     DFT-D3  stress (kbar)      0.00      0.00      0.00
                                0.00      0.00      0.00
                                0.00      0.00      0.00

     XDM     stress (kbar)      0.00      0.00      0.00
                                0.00      0.00      0.00
                                0.00      0.00      0.00

     dft-nl  stress (kbar)      0.00      0.00      0.00
                                0.00      0.00      0.00
                                0.00      0.00      0.00

     TS-vdW  stress (kbar)      0.00      0.00      0.00
                                0.00      0.00      0.00
                                0.00      0.00      0.00

     Writing output data file ZnO.save/

     General routines

     Parallel routines

   This run was terminated on:  14:32:11  16Jun2022

   JOB DONE.