     Program PWSCF v.6.4.1 starts on 15Jun2022 at 20:45:15

     K-points division:     npool     =       4
     R & G space division:  proc/nbgrp/npool/nimage =      16
     Waiting for input...
     Reading input from standard input
Warning: card &IONS ignored
Warning: card   UPSCALE           = 100.D0, ignored
Warning: card / ignored
Warning: card &CELL ignored
Warning: card   CELL_DYNAMICS     = 'BFGS' ignored
Warning: card   PRESS_CONV_THR    = 0.5D0 ignored
Warning: card   CELL_DOFREE = 'ALL' ignored
Warning: card / ignored

     Current dimensions of program PWSCF are:
     Max number of different atomic species (ntypx) = 10
     Max number of k-points (npk) =  40000
     Max angular momentum in pseudopotentials (lmaxx) =  3

NOTICE: Bravais lattice has wrong number ( 3) of symmetries - symmetries are disabled

     bravais-lattice index     =            0
     lattice parameter (alat)  =       6.3713  a.u.
     unit-cell volume          =     310.4236 (a.u.)^3
     number of atoms/cell      =            4
     number of atomic types    =            2
     number of electrons       =        52.00
     number of Kohn-Sham states=           26
     kinetic-energy cutoff     =      80.0000  Ry
     charge density cutoff     =     600.0000  Ry
     convergence threshold     =      1.0E-06
     mixing beta               =       0.5000
     number of iterations used =            8  plain     mixing
     Exchange-correlation      = SLA  PW   PSX  PSC ( 1  4 10  8 0 0)

     celldm(1)=   6.371274  celldm(2)=   0.000000  celldm(3)=   0.000000
     celldm(4)=   0.000000  celldm(5)=   0.000000  celldm(6)=   0.000000

     crystal axes: (cart. coord. in units of alat)
               a(1) = (   1.000000   0.000000  -0.000000 )
               a(2) = (  -0.500000   0.866026   0.000000 )
               a(3) = (  -0.000000   0.000001   1.385942 )

     reciprocal axes: (cart. coord. in units 2 pi/alat)
               b(1) = (  1.000000  0.577350 -0.000000 )
               b(2) = ( -0.000001  1.154700 -0.000001 )
               b(3) = (  0.000000 -0.000000  0.721531 )

     PseudoPot. # 1 for Zn read from file:
     ./GBRV_PBEsol/zn_pbesol_v1.uspp.F.UPF
     MD5 check sum: 7d8615e52efe7c1e2b1899de8658bae2
     Pseudo is Ultrasoft, Zval = 20.0
     Generated by new atomic code, or converted to UPF format
     Using radial grid of  943 points,  6 beta functions with:
                l(1) =   0
                l(2) =   0
                l(3) =   1
                l(4) =   1
                l(5) =   2
                l(6) =   2
     Q(r) pseudized with  8 coefficients,  rinner =    1.100   1.100   1.100
                                                       1.100   1.100

     PseudoPot. # 2 for O  read from file:
     ./GBRV_PBEsol/o_pbesol_v1.2.uspp.F.UPF
     MD5 check sum: 501638753501ef6325af9037351f7734
     Pseudo is Ultrasoft + core correction, Zval =  6.0
     Generated by new atomic code, or converted to UPF format
     Using radial grid of  737 points,  5 beta functions with:
                l(1) =   0
                l(2) =   0
                l(3) =   1
                l(4) =   1
                l(5) =   2
     Q(r) pseudized with  8 coefficients,  rinner =    0.900   0.900   0.900
                                                       0.900   0.900

     atomic species   valence    mass     pseudopotential
        Zn            20.00    65.38000     Zn( 1.00)
        O              6.00    15.99900     O ( 1.00)

     No symmetry found

                                    s                        frac. trans.

      isym =  1     identity

 cryst.   s( 1) = (     1          0          0      )
                  (     0          1          0      )
                  (     0          0          1      )

 cart.    s( 1) = (  1.0000000  0.0000000  0.0000000 )
                  ( -0.0000000  1.0000000 -0.0000000 )
                  (  0.0000000  0.0000000  1.0000000 )

   Cartesian axes

     site n.     atom                  positions (alat units)
         1           O   tau(   1) = (   0.5000003   0.2886758   0.0101810  )
         2           O   tau(   2) = (   0.0000002   0.5773500   0.7031521  )
         3           Zn  tau(   3) = (   0.5000000   0.2886755   0.6463400  )
         4           Zn  tau(   4) = (  -0.0000001   0.5773521   1.3393112  )

   Crystallographic axes

     site n.     atom                  positions (cryst. coord.)
         1           O   tau(   1) = (  0.6666670  0.3333337  0.0073459  )
         2           O   tau(   2) = (  0.3333329  0.6666657  0.5073458  )
         3           Zn  tau(   3) = (  0.6666664  0.3333329  0.4663542  )
         4           Zn  tau(   4) = (  0.3333336  0.6666677  0.9663542  )

     number of k points=   260
                       cart. coord. in units 2pi/alat
        k(    1) = (   0.0000000   0.0000000   0.0000000), wk =   0.0039062
        k(    2) = (   0.0000000  -0.0000000   0.0901914), wk =   0.0078125
        k(    3) = (   0.0000000  -0.0000001   0.1803827), wk =   0.0078125
        k(    4) = (   0.0000000  -0.0000001   0.2705741), wk =   0.0078125
        k(    5) = (  -0.0000000   0.0000002  -0.3607654), wk =   0.0039062
        k(    6) = (  -0.0000001   0.1443375  -0.0000001), wk =   0.0078125
        k(    7) = (  -0.0000001   0.1443375   0.0901913), wk =   0.0078125
        k(    8) = (  -0.0000001   0.1443374   0.1803826), wk =   0.0078125
        k(    9) = (  -0.0000001   0.1443374   0.2705740), wk =   0.0078125
        k(   10) = (  -0.0000001   0.1443377  -0.3607655), wk =   0.0078125
        k(   11) = (  -0.0000001   0.1443376  -0.2705742), wk =   0.0078125
        k(   12) = (  -0.0000001   0.1443376  -0.1803828), wk =   0.0078125
        k(   13) = (  -0.0000001   0.1443375  -0.0901914), wk =   0.0078125
        k(   14) = (  -0.0000001   0.2886750  -0.0000001), wk =   0.0078125
        k(   15) = (  -0.0000001   0.2886750   0.0901912), wk =   0.0078125
        k(   16) = (  -0.0000001   0.2886749   0.1803826), wk =   0.0078125
        k(   17) = (  -0.0000001   0.2886749   0.2705739), wk =   0.0078125
        k(   18) = (  -0.0000002   0.2886752  -0.3607656), wk =   0.0078125
        k(   19) = (  -0.0000002   0.2886751  -0.2705742), wk =   0.0078125
        k(   20) = (  -0.0000001   0.2886751  -0.1803829), wk =   0.0078125
        k(   21) = (  -0.0000001   0.2886750  -0.0901915), wk =   0.0078125
        k(   22) = (  -0.0000002   0.4330125  -0.0000002), wk =   0.0078125
        k(   23) = (  -0.0000002   0.4330125   0.0901911), wk =   0.0078125
        k(   24) = (  -0.0000002   0.4330124   0.1803825), wk =   0.0078125
        k(   25) = (  -0.0000002   0.4330124   0.2705739), wk =   0.0078125
        k(   26) = (  -0.0000002   0.4330127  -0.3607657), wk =   0.0078125
        k(   27) = (  -0.0000002   0.4330126  -0.2705743), wk =   0.0078125
        k(   28) = (  -0.0000002   0.4330126  -0.1803829), wk =   0.0078125
        k(   29) = (  -0.0000002   0.4330125  -0.0901916), wk =   0.0078125
        k(   30) = (   0.0000003  -0.5773500   0.0000003), wk =   0.0039062
        k(   31) = (   0.0000003  -0.5773500   0.0901916), wk =   0.0078125
        k(   32) = (   0.0000003  -0.5773501   0.1803830), wk =   0.0078125
        k(   33) = (   0.0000003  -0.5773501   0.2705744), wk =   0.0078125
        k(   34) = (   0.0000003  -0.5773498  -0.3607652), wk =   0.0039062
        k(   35) = (   0.1250000   0.0721687  -0.0000000), wk =   0.0078125
        k(   36) = (   0.1250000   0.0721686   0.0901913), wk =   0.0078125
        k(   37) = (   0.1250000   0.0721686   0.1803827), wk =   0.0078125
        k(   38) = (   0.1250000   0.0721686   0.2705741), wk =   0.0078125
        k(   39) = (   0.1249999   0.0721689  -0.3607655), wk =   0.0078125
        k(   40) = (   0.1250000   0.0721688  -0.2705741), wk =   0.0078125
        k(   41) = (   0.1250000   0.0721688  -0.1803827), wk =   0.0078125
        k(   42) = (   0.1250000   0.0721687  -0.0901914), wk =   0.0078125
        k(   43) = (   0.1249999   0.2165062  -0.0000001), wk =   0.0078125
        k(   44) = (   0.1249999   0.2165061   0.0901913), wk =   0.0078125
        k(   45) = (   0.1249999   0.2165061   0.1803826), wk =   0.0078125
        k(   46) = (   0.1249999   0.2165061   0.2705740), wk =   0.0078125
        k(   47) = (   0.1249999   0.2165064  -0.3607655), wk =   0.0078125
        k(   48) = (   0.1249999   0.2165063  -0.2705742), wk =   0.0078125
        k(   49) = (   0.1249999   0.2165063  -0.1803828), wk =   0.0078125
        k(   50) = (   0.1249999   0.2165062  -0.0901914), wk =   0.0078125
        k(   51) = (   0.1249998   0.3608437  -0.0000002), wk =   0.0078125
        k(   52) = (   0.1249998   0.3608436   0.0901912), wk =   0.0078125
        k(   53) = (   0.1249998   0.3608436   0.1803826), wk =   0.0078125
        k(   54) = (   0.1249998   0.3608436   0.2705739), wk =   0.0078125
        k(   55) = (   0.1249998   0.3608439  -0.3607656), wk =   0.0078125
        k(   56) = (   0.1249998   0.3608438  -0.2705742), wk =   0.0078125
        k(   57) = (   0.1249998   0.3608438  -0.1803829), wk =   0.0078125
        k(   58) = (   0.1249998   0.3608437  -0.0901915), wk =   0.0078125
        k(   59) = (   0.1249998   0.5051812  -0.0000002), wk =   0.0078125
        k(   60) = (   0.1249998   0.5051812   0.0901911), wk =   0.0078125
[...]
        k(  246) = (  -0.5000000   0.0000003  -0.1803828), wk =   0.0078125
        k(  247) = (  -0.5000000   0.0000003  -0.0901914), wk =   0.0078125
        k(  248) = (  -0.5000001   0.1443377  -0.0000002), wk =   0.0078125
        k(  249) = (  -0.5000001   0.1443377   0.0901912), wk =   0.0078125
        k(  250) = (  -0.5000001   0.1443377   0.1803826), wk =   0.0078125
        k(  251) = (  -0.5000001   0.1443376   0.2705739), wk =   0.0078125
        k(  252) = (  -0.5000001   0.1443379  -0.3607656), wk =   0.0078125
        k(  253) = (  -0.5000001   0.1443379  -0.2705742), wk =   0.0078125
        k(  254) = (  -0.5000001   0.1443378  -0.1803829), wk =   0.0078125
        k(  255) = (  -0.5000001   0.1443378  -0.0901915), wk =   0.0078125
        k(  256) = (  -0.4999996  -0.8660248   0.0000003), wk =   0.0039062
        k(  257) = (  -0.4999996  -0.8660248   0.0901917), wk =   0.0078125
        k(  258) = (  -0.4999996  -0.8660248   0.1803831), wk =   0.0078125
        k(  259) = (  -0.4999996  -0.8660249   0.2705744), wk =   0.0078125
        k(  260) = (  -0.4999996  -0.8660246  -0.3607651), wk =   0.0039062

                       cryst. coord.
        k(    1) = (   0.0000000   0.0000000   0.0000000), wk =   0.0039062
        k(    2) = (   0.0000000  -0.0000000   0.1250000), wk =   0.0078125
        k(    3) = (   0.0000000  -0.0000000   0.2500000), wk =   0.0078125
        k(    4) = (  -0.0000000  -0.0000000   0.3750000), wk =   0.0078125
        k(    5) = (  -0.0000000   0.0000000  -0.5000000), wk =   0.0039062
        k(    6) = (  -0.0000000   0.1250000   0.0000000), wk =   0.0078125
        k(    7) = (   0.0000000   0.1250000   0.1250000), wk =   0.0078125
        k(    8) = (  -0.0000000   0.1250000   0.2500000), wk =   0.0078125
        k(    9) = (   0.0000000   0.1250000   0.3750000), wk =   0.0078125
        k(   10) = (  -0.0000000   0.1250000  -0.5000000), wk =   0.0078125
        k(   11) = (  -0.0000000   0.1250000  -0.3750000), wk =   0.0078125
        k(   12) = (   0.0000000   0.1250000  -0.2500000), wk =   0.0078125
        k(   13) = (   0.0000000   0.1250000  -0.1250000), wk =   0.0078125
        k(   14) = (  -0.0000000   0.2500000   0.0000000), wk =   0.0078125
        k(   15) = (  -0.0000000   0.2500000   0.1250000), wk =   0.0078125
        k(   16) = (   0.0000000   0.2500000   0.2500000), wk =   0.0078125
        k(   17) = (   0.0000000   0.2500000   0.3750000), wk =   0.0078125
        k(   18) = (   0.0000000   0.2500000  -0.5000000), wk =   0.0078125
        k(   19) = (   0.0000000   0.2500000  -0.3750000), wk =   0.0078125
        k(   20) = (   0.0000000   0.2500000  -0.2500000), wk =   0.0078125
        k(   21) = (   0.0000000   0.2500000  -0.1250000), wk =   0.0078125
        k(   22) = (   0.0000000   0.3750000  -0.0000000), wk =   0.0078125
        k(   23) = (  -0.0000000   0.3750000   0.1250000), wk =   0.0078125
        k(   24) = (   0.0000000   0.3750000   0.2500000), wk =   0.0078125
        k(   25) = (  -0.0000000   0.3750000   0.3750000), wk =   0.0078125
        k(   26) = (   0.0000000   0.3750000  -0.5000000), wk =   0.0078125
        k(   27) = (   0.0000000   0.3750000  -0.3750000), wk =   0.0078125
        k(   28) = (  -0.0000000   0.3750000  -0.2500000), wk =   0.0078125
        k(   29) = (   0.0000000   0.3750000  -0.1250000), wk =   0.0078125
        k(   30) = (   0.0000000  -0.5000000  -0.0000000), wk =   0.0039062
        k(   31) = (  -0.0000000  -0.5000000   0.1250000), wk =   0.0078125
        k(   32) = (  -0.0000000  -0.5000000   0.2500000), wk =   0.0078125
        k(   33) = (   0.0000000  -0.5000000   0.3750000), wk =   0.0078125
        k(   34) = (  -0.0000000  -0.5000000  -0.5000000), wk =   0.0039062
        k(   35) = (   0.1250000   0.0000000   0.0000000), wk =   0.0078125
        k(   36) = (   0.1250000   0.0000000   0.1250000), wk =   0.0078125
        k(   37) = (   0.1250000   0.0000000   0.2500000), wk =   0.0078125
        k(   38) = (   0.1250000   0.0000000   0.3750000), wk =   0.0078125
        k(   39) = (   0.1250000   0.0000000  -0.5000000), wk =   0.0078125
        k(   40) = (   0.1250000   0.0000000  -0.3750000), wk =   0.0078125
        k(   41) = (   0.1250000   0.0000000  -0.2500000), wk =   0.0078125
        k(   42) = (   0.1250000   0.0000000  -0.1250000), wk =   0.0078125
        k(   43) = (   0.1250000   0.1250000  -0.0000000), wk =   0.0078125
        k(   44) = (   0.1250000   0.1250000   0.1250000), wk =   0.0078125
        k(   45) = (   0.1250000   0.1250000   0.2500000), wk =   0.0078125
        k(   46) = (   0.1250000   0.1250000   0.3750000), wk =   0.0078125
        k(   47) = (   0.1250000   0.1250000  -0.5000000), wk =   0.0078125
        k(   48) = (   0.1250000   0.1250000  -0.3750000), wk =   0.0078125
        k(   49) = (   0.1250000   0.1250000  -0.2500000), wk =   0.0078125
        k(   50) = (   0.1250000   0.1250000  -0.1250000), wk =   0.0078125
        k(   51) = (   0.1250000   0.2500000  -0.0000000), wk =   0.0078125
        k(   52) = (   0.1250000   0.2500000   0.1250000), wk =   0.0078125
        k(   53) = (   0.1250000   0.2500000   0.2500000), wk =   0.0078125
        k(   54) = (   0.1250000   0.2500000   0.3750000), wk =   0.0078125
        k(   55) = (   0.1250000   0.2500000  -0.5000000), wk =   0.0078125
        k(   56) = (   0.1250000   0.2500000  -0.3750000), wk =   0.0078125
        k(   57) = (   0.1250000   0.2500000  -0.2500000), wk =   0.0078125
        k(   58) = (   0.1250000   0.2500000  -0.1250000), wk =   0.0078125
        k(   59) = (   0.1250000   0.3750000   0.0000000), wk =   0.0078125
        k(   60) = (   0.1250000   0.3750000   0.1250000), wk =   0.0078125
[...]
        k(  246) = (  -0.5000000   0.2500000  -0.2500000), wk =   0.0078125
        k(  247) = (  -0.5000000   0.2500000  -0.1250000), wk =   0.0078125
        k(  248) = (  -0.5000000   0.3750000  -0.0000000), wk =   0.0078125
        k(  249) = (  -0.5000000   0.3750000   0.1250000), wk =   0.0078125
        k(  250) = (  -0.5000000   0.3750000   0.2500000), wk =   0.0078125
        k(  251) = (  -0.5000000   0.3750000   0.3750000), wk =   0.0078125
        k(  252) = (  -0.5000000   0.3750000  -0.5000000), wk =   0.0078125
        k(  253) = (  -0.5000000   0.3750000  -0.3750000), wk =   0.0078125
        k(  254) = (  -0.5000000   0.3750000  -0.2500000), wk =   0.0078125
        k(  255) = (  -0.5000000   0.3750000  -0.1250000), wk =   0.0078125
        k(  256) = (  -0.5000000  -0.5000000   0.0000000), wk =   0.0039062
        k(  257) = (  -0.5000000  -0.5000000   0.1250000), wk =   0.0078125
        k(  258) = (  -0.5000000  -0.5000000   0.2500000), wk =   0.0078125
        k(  259) = (  -0.5000000  -0.5000000   0.3750000), wk =   0.0078125
        k(  260) = (  -0.5000000  -0.5000000  -0.5000000), wk =   0.0039062

     Check: negative core charge=   -0.000003

     Initial potential from superposition of free atoms

     starting charge   51.99974, renormalised to   52.00000
     Starting wfcs are   34 randomized atomic wfcs

     Self-consistent Calculation

     iteration #  1     ecut=    80.00 Ry     beta= 0.50
     Davidson diagonalization with overlap
     ethr =  1.00E-02,  avg # of iterations =  1.0

     total energy              =    -986.75494232 Ry
     Harris-Foulkes estimate   =    -987.27457295 Ry
     estimated scf accuracy    <       0.81660448 Ry

[...]

     total energy              =    -987.06510260 Ry
     Harris-Foulkes estimate   =    -987.06510207 Ry
     estimated scf accuracy    <       0.00000364 Ry

     iteration #  7     ecut=    80.00 Ry     beta= 0.50
     Davidson diagonalization with overlap
     ethr =  7.00E-09,  avg # of iterations =  2.0

     End of self-consistent calculation

          k = 0.0000 0.0000 0.0000 (  3703 PWs)   bands (ev):

  -113.9791-113.9785 -68.3705 -68.3646 -68.3236 -68.3236 -68.3219 -68.3219
    -8.9142  -7.8377   3.2439   3.2439   3.2997   3.2997   4.0141   4.3516
     4.4986   4.4986   4.8414   4.8414   5.2255   8.4085   8.4085   8.4191
     9.0933   9.0933

     occupation numbers
     1.0000   1.0000   1.0000   1.0000   1.0000   1.0000   1.0000   1.0000
     1.0000   1.0000   1.0000   1.0000   1.0000   1.0000   1.0000   1.0000
     1.0000   1.0000   1.0000   1.0000   1.0000   1.0000   1.0000   1.0000
     1.0000   1.0000

[...]

          k =-0.0000 0.0000-0.3608 (  3710 PWs)   bands (ev):

[...]

          k = 0.3750 0.0722-0.0902 (  3749 PWs)   bands (ev):

[...]

          k =-0.5000-0.8660-0.3608 (  3752 PWs)   bands (ev):

  -113.9789-113.9786 -68.3677 -68.3674 -68.3243 -68.3240 -68.3233 -68.3230
    -7.9553  -7.9552   2.8400   2.8401   3.7657   3.7659   3.9272   3.9273
     4.6986   4.6988   4.8300   4.8303   5.4903   5.4905   7.2354   7.2354
     8.5372   8.5373

     occupation numbers
     1.0000   1.0000   1.0000   1.0000   1.0000   1.0000   1.0000   1.0000
     1.0000   1.0000   1.0000   1.0000   1.0000   1.0000   1.0000   1.0000
     1.0000   1.0000   1.0000   1.0000   1.0000   1.0000   1.0000   1.0000
     1.0000   1.0000

     highest occupied level (ev):     9.0933

!    total energy              =    -987.06510284 Ry
     Harris-Foulkes estimate   =    -987.06510287 Ry
     estimated scf accuracy    <       0.00000007 Ry

     The total energy is the sum of the following terms:

     one-electron contribution =    -794.41601207 Ry
     hartree contribution      =     419.35975729 Ry
     xc contribution           =     -98.09135755 Ry
     ewald contribution        =    -513.91749051 Ry

     convergence has been achieved in   7 iterations

     Forces acting on atoms (cartesian axes, Ry/au):

     atom    1 type  2   force =     0.00000053   -0.00000049    0.00832086
     atom    2 type  2   force =    -0.00000062    0.00000064    0.00831838
     atom    3 type  1   force =     0.00000165   -0.00000101   -0.00832918
     atom    4 type  1   force =    -0.00000155    0.00000086   -0.00831006
     The non-local contrib.  to forces
     atom    1 type  2   force =    -0.00000029   -0.00000277    0.06105645
     atom    2 type  2   force =     0.00000143   -0.00000021    0.06105782
     atom    3 type  1   force =     0.00000508   -0.00000631    0.14350683
     atom    4 type  1   force =    -0.00000107   -0.00000041    0.14351651
     The ionic contribution  to forces
     atom    1 type  2   force =     0.00001438    0.00002279   -0.85121825
     atom    2 type  2   force =    -0.00003378    0.00002046   -0.85121751
     atom    3 type  1   force =     0.00004470   -0.00003552    0.85122254
     atom    4 type  1   force =    -0.00002529   -0.00000773    0.85121323
     The local contribution  to forces
     atom    1 type  2   force =    -0.00001390   -0.00002128    0.79895128
     atom    2 type  2   force =     0.00003081   -0.00001842    0.79896505
     atom    3 type  1   force =    -0.00004716    0.00004029   -1.00321643
     atom    4 type  1   force =     0.00002683    0.00000874   -1.00323897
     The core correction contribution to forces
     atom    1 type  2   force =    -0.00000000    0.00000001   -0.00033184
     atom    2 type  2   force =    -0.00000001   -0.00000001   -0.00033184
     atom    3 type  1   force =     0.00000000    0.00000000    0.00000000
     atom    4 type  1   force =     0.00000000    0.00000000    0.00000000
     The Hubbard contrib.    to forces
     atom    1 type  2   force =     0.00000000    0.00000000    0.00000000
     atom    2 type  2   force =     0.00000000    0.00000000    0.00000000
     atom    3 type  1   force =     0.00000000    0.00000000    0.00000000
     atom    4 type  1   force =     0.00000000    0.00000000    0.00000000
     The SCF correction term to forces
     atom    1 type  2   force =     0.00000000    0.00000000    0.00000000
     atom    2 type  2   force =     0.00000000    0.00000000    0.00000000
     atom    3 type  1   force =     0.00000000    0.00000000    0.00000000
     atom    4 type  1   force =     0.00000000    0.00000000    0.00000000

     Total force =     0.000000     Total SCF correction =     0.000000

     Computing stress (Cartesian axis) and pressure

          total   stress  (Ry/bohr**3)                   (kbar)     P=   -1.88
  -0.00000837  -0.00000001  -0.00000000         -1.23     -0.00     -0.00
  -0.00000001  -0.00000839  -0.00000001         -0.00     -1.23     -0.00
  -0.00000000  -0.00000001  -0.00002165         -0.00     -0.00     -3.18

     kinetic stress (kbar)  34676.66     -0.00      0.00
                               -0.00  34676.66     -0.00
                                0.00     -0.00  35096.64

     local   stress (kbar)   -858.19      0.01      0.02
                                0.01   -858.32     -0.05
                                0.02     -0.05  -8292.45

     nonloc. stress (kbar)  -1697.05      0.00      0.00
                                0.00  -1697.05      0.00
                                0.00      0.00  -1860.97

     hartree stress (kbar)  64710.67     -0.00     -0.01
                               -0.00  64710.74      0.02
                               -0.01      0.02  69306.87

     exc-cor stress (kbar) -14536.24      0.00      0.00
                                0.00 -14536.24      0.00
                                0.00      0.00 -14542.04

     corecor stress (kbar)   -255.59      0.00      0.00
                                0.00   -255.59      0.00
                                0.00      0.00   -256.39

     ewald   stress (kbar) -82041.50     -0.01     -0.01
                               -0.01 -82041.43      0.03
                               -0.01      0.03 -79454.84

     hubbard stress (kbar)      0.00      0.00      0.00
                                0.00      0.00      0.00
                                0.00      0.00      0.00

     london  stress (kbar)      0.00      0.00      0.00
                                0.00      0.00      0.00
                                0.00      0.00      0.00

     DFT-D3  stress (kbar)      0.00      0.00      0.00
                                0.00      0.00      0.00
                                0.00      0.00      0.00

     XDM     stress (kbar)      0.00      0.00      0.00
                                0.00      0.00      0.00
                                0.00      0.00      0.00

     dft-nl  stress (kbar)      0.00      0.00      0.00
                                0.00      0.00      0.00
                                0.00      0.00      0.00

     TS-vdW  stress (kbar)      0.00      0.00      0.00
                                0.00      0.00      0.00
                                0.00      0.00      0.00

     Writing output data file ZnO.save/

     General routines

     Parallel routines

   This run was terminated on:  20:45:29  15Jun2022

   JOB DONE.