     Program PWSCF v.6.4.1 starts on 16Jun2022 at 16: 0:58

     K-points division:     npool     =       4
     R & G space division:  proc/nbgrp/npool/nimage =      16
     Waiting for input...
     Reading input from standard input

     Current dimensions of program PWSCF are:
     Max number of different atomic species (ntypx) = 10
     Max number of k-points (npk) =  40000
     Max angular momentum in pseudopotentials (lmaxx) =  3

     bravais-lattice index     =            0
     lattice parameter (alat)  =       6.0764  a.u.
     unit-cell volume          =     323.9155 (a.u.)^3
     number of atoms/cell      =            4
     number of atomic types    =            2
     number of electrons       =        32.00
     number of Kohn-Sham states=           16
     kinetic-energy cutoff     =      80.0000  Ry
     charge density cutoff     =     600.0000  Ry
     convergence threshold     =      1.0E-06
     mixing beta               =       0.5000
     number of iterations used =            8  plain     mixing
     Exchange-correlation      = SLA  PW   PSX  PSC ( 1  4 10  8 0 0)
     nstep                     =          200

     celldm(1)=   6.076409  celldm(2)=   0.000000  celldm(3)=   0.000000
     celldm(4)=   0.000000  celldm(5)=   0.000000  celldm(6)=   0.000000

     crystal axes: (cart. coord. in units of alat)
               a(1) = (   1.000000  -0.000000  -0.000000 )
               a(2) = (  -0.500000   0.866026   0.000000 )
               a(3) = (  -0.000000   0.000000   1.667094 )

     reciprocal axes: (cart. coord. in units 2 pi/alat)
               b(1) = (  1.000000  0.577350  0.000000 )
               b(2) = (  0.000000  1.154700 -0.000000 )
               b(3) = (  0.000000 -0.000000  0.599846 )

     PseudoPot. # 1 for Mg read from file:
     ./GBRV_PBEsol/mg_pbesol_v1.4.uspp.F.UPF
     MD5 check sum: 4059f37963cf5867752dbf5ab2400678
     Pseudo is Ultrasoft, Zval = 10.0
     Generated by new atomic code, or converted to UPF format
     Using radial grid of  821 points,  7 beta functions with:
                l(1) =   0
                l(2) =   0
                l(3) =   0
                l(4) =   1
                l(5) =   1
                l(6) =   2
                l(7) =   2
     Q(r) pseudized with  8 coefficients,  rinner =    1.200   1.200   1.200
                                                       1.200   1.200

     PseudoPot. # 2 for O  read from file:
     ./GBRV_PBEsol/o_pbesol_v1.2.uspp.F.UPF
     MD5 check sum: 501638753501ef6325af9037351f7734
     Pseudo is Ultrasoft + core correction, Zval =  6.0
     Generated by new atomic code, or converted to UPF format
     Using radial grid of  737 points,  5 beta functions with:
                l(1) =   0
                l(2) =   0
                l(3) =   1
                l(4) =   1
                l(5) =   2
     Q(r) pseudized with  8 coefficients,  rinner =    0.900   0.900   0.900
                                                       0.900   0.900

     atomic species   valence    mass     pseudopotential
        Mg            10.00    24.30500     Mg( 1.00)
        O              6.00    15.99900     O ( 1.00)

     No symmetry found

                                    s                        frac. trans.

      isym =  1     identity

 cryst.   s( 1) = (     1          0          0      )
                  (     0          1          0      )
                  (     0          0          1      )

 cart.    s( 1) = (  1.0000000  0.0000000  0.0000000 )
                  (  0.0000000  1.0000000 -0.0000000 )
                  (  0.0000000 -0.0000000  1.0000000 )

   Cartesian axes

     site n.     atom                  positions (alat units)
         1           O   tau(   1) = (   0.5000001   0.2886754   0.0122462  )
         2           O   tau(   2) = (  -0.0000001   0.5773496   0.8457930  )
         3           Mg  tau(   3) = (   0.4999999   0.2886748   0.6107465  )
         4           Mg  tau(   4) = (  -0.0000004   0.5773514   1.4442932  )

   Crystallographic axes

     site n.     atom                  positions (cryst. coord.)
         1           O   tau(   1) = (  0.6666670  0.3333337  0.0073459  )
         2           O   tau(   2) = (  0.3333329  0.6666657  0.5073458  )
         3           Mg  tau(   3) = (  0.6666664  0.3333329  0.3663540  )
         4           Mg  tau(   4) = (  0.3333336  0.6666677  0.8663539  )

     number of k points=   260
                       cart. coord. in units 2pi/alat
        k(    1) = (   0.0000000   0.0000000   0.0000000), wk =   0.0039062
        k(    2) = (   0.0000000  -0.0000000   0.0749808), wk =   0.0078125
        k(    3) = (   0.0000000  -0.0000000   0.1499616), wk =   0.0078125
        k(    4) = (   0.0000000  -0.0000000   0.2249424), wk =   0.0078125
        k(    5) = (  -0.0000000   0.0000000  -0.2999232), wk =   0.0039062
        k(    6) = (   0.0000000   0.1443375  -0.0000000), wk =   0.0078125
        k(    7) = (   0.0000000   0.1443375   0.0749808), wk =   0.0078125
        k(    8) = (   0.0000000   0.1443375   0.1499616), wk =   0.0078125
        k(    9) = (   0.0000000   0.1443375   0.2249424), wk =   0.0078125
        k(   10) = (   0.0000000   0.1443376  -0.2999232), wk =   0.0078125
        k(   11) = (   0.0000000   0.1443376  -0.2249424), wk =   0.0078125
        k(   12) = (   0.0000000   0.1443376  -0.1499616), wk =   0.0078125
        k(   13) = (   0.0000000   0.1443375  -0.0749808), wk =   0.0078125
        k(   14) = (   0.0000001   0.2886751  -0.0000000), wk =   0.0078125
        k(   15) = (   0.0000001   0.2886751   0.0749808), wk =   0.0078125
        k(   16) = (   0.0000001   0.2886751   0.1499616), wk =   0.0078125
        k(   17) = (   0.0000001   0.2886751   0.2249423), wk =   0.0078125
        k(   18) = (   0.0000000   0.2886751  -0.2999232), wk =   0.0078125
        k(   19) = (   0.0000000   0.2886751  -0.2249424), wk =   0.0078125
        k(   20) = (   0.0000000   0.2886751  -0.1499616), wk =   0.0078125
        k(   21) = (   0.0000000   0.2886751  -0.0749808), wk =   0.0078125
        k(   22) = (   0.0000001   0.4330126  -0.0000000), wk =   0.0078125
        k(   23) = (   0.0000001   0.4330126   0.0749807), wk =   0.0078125
        k(   24) = (   0.0000001   0.4330126   0.1499615), wk =   0.0078125
        k(   25) = (   0.0000001   0.4330126   0.2249423), wk =   0.0078125
        k(   26) = (   0.0000001   0.4330127  -0.2999232), wk =   0.0078125
        k(   27) = (   0.0000001   0.4330126  -0.2249424), wk =   0.0078125
        k(   28) = (   0.0000001   0.4330126  -0.1499616), wk =   0.0078125
        k(   29) = (   0.0000001   0.4330126  -0.0749808), wk =   0.0078125
        k(   30) = (  -0.0000001  -0.5773502   0.0000001), wk =   0.0039062
        k(   31) = (  -0.0000001  -0.5773502   0.0749808), wk =   0.0078125
        k(   32) = (  -0.0000001  -0.5773502   0.1499616), wk =   0.0078125
        k(   33) = (  -0.0000001  -0.5773502   0.2249424), wk =   0.0078125
        k(   34) = (  -0.0000001  -0.5773501  -0.2999231), wk =   0.0039062
        k(   35) = (   0.1250000   0.0721688   0.0000000), wk =   0.0078125
        k(   36) = (   0.1250000   0.0721688   0.0749808), wk =   0.0078125
        k(   37) = (   0.1250000   0.0721688   0.1499616), wk =   0.0078125
        k(   38) = (   0.1250000   0.0721688   0.2249424), wk =   0.0078125
        k(   39) = (   0.1250000   0.0721688  -0.2999232), wk =   0.0078125
        k(   40) = (   0.1250000   0.0721688  -0.2249424), wk =   0.0078125
        k(   41) = (   0.1250000   0.0721688  -0.1499616), wk =   0.0078125
        k(   42) = (   0.1250000   0.0721688  -0.0749808), wk =   0.0078125
        k(   43) = (   0.1250000   0.2165063  -0.0000000), wk =   0.0078125
        k(   44) = (   0.1250000   0.2165063   0.0749808), wk =   0.0078125
        k(   45) = (   0.1250000   0.2165063   0.1499616), wk =   0.0078125
        k(   46) = (   0.1250001   0.2165063   0.2249424), wk =   0.0078125
        k(   47) = (   0.1250000   0.2165064  -0.2999232), wk =   0.0078125
        k(   48) = (   0.1250000   0.2165063  -0.2249424), wk =   0.0078125
        k(   49) = (   0.1250000   0.2165063  -0.1499616), wk =   0.0078125
        k(   50) = (   0.1250000   0.2165063  -0.0749808), wk =   0.0078125
        k(   51) = (   0.1250001   0.3608439  -0.0000000), wk =   0.0078125
        k(   52) = (   0.1250001   0.3608439   0.0749808), wk =   0.0078125
        k(   53) = (   0.1250001   0.3608439   0.1499616), wk =   0.0078125
        k(   54) = (   0.1250001   0.3608438   0.2249423), wk =   0.0078125
        k(   55) = (   0.1250000   0.3608439  -0.2999232), wk =   0.0078125
        k(   56) = (   0.1250000   0.3608439  -0.2249424), wk =   0.0078125
        k(   57) = (   0.1250001   0.3608439  -0.1499616), wk =   0.0078125
        k(   58) = (   0.1250001   0.3608439  -0.0749808), wk =   0.0078125
        k(   59) = (   0.1250001   0.5051814  -0.0000000), wk =   0.0078125
        k(   60) = (   0.1250001   0.5051814   0.0749808), wk =   0.0078125
[...]
        k(  246) = (  -0.5000000  -0.0000000  -0.1499616), wk =   0.0078125
        k(  247) = (  -0.5000000  -0.0000000  -0.0749808), wk =   0.0078125
        k(  248) = (  -0.5000000   0.1443375  -0.0000000), wk =   0.0078125
        k(  249) = (  -0.5000000   0.1443375   0.0749807), wk =   0.0078125
        k(  250) = (  -0.5000000   0.1443375   0.1499615), wk =   0.0078125
        k(  251) = (  -0.5000000   0.1443375   0.2249423), wk =   0.0078125
        k(  252) = (  -0.5000000   0.1443375  -0.2999232), wk =   0.0078125
        k(  253) = (  -0.5000000   0.1443375  -0.2249424), wk =   0.0078125
        k(  254) = (  -0.5000000   0.1443375  -0.1499616), wk =   0.0078125
        k(  255) = (  -0.5000000   0.1443375  -0.0749808), wk =   0.0078125
        k(  256) = (  -0.5000002  -0.8660253   0.0000000), wk =   0.0039062
        k(  257) = (  -0.5000001  -0.8660253   0.0749808), wk =   0.0078125
        k(  258) = (  -0.5000001  -0.8660253   0.1499616), wk =   0.0078125
        k(  259) = (  -0.5000001  -0.8660253   0.2249424), wk =   0.0078125
        k(  260) = (  -0.5000002  -0.8660253  -0.2999231), wk =   0.0039062

                       cryst. coord.
        k(    1) = (   0.0000000   0.0000000   0.0000000), wk =   0.0039062
        k(    2) = (  -0.0000000   0.0000000   0.1250000), wk =   0.0078125
        k(    3) = (  -0.0000000   0.0000000   0.2500000), wk =   0.0078125
        k(    4) = (  -0.0000000  -0.0000000   0.3750000), wk =   0.0078125
        k(    5) = (   0.0000000  -0.0000000  -0.5000000), wk =   0.0039062
        k(    6) = (  -0.0000000   0.1250000  -0.0000000), wk =   0.0078125
        k(    7) = (   0.0000000   0.1250000   0.1250000), wk =   0.0078125
        k(    8) = (  -0.0000000   0.1250000   0.2500000), wk =   0.0078125
        k(    9) = (   0.0000000   0.1250000   0.3750000), wk =   0.0078125
        k(   10) = (   0.0000000   0.1250000  -0.5000000), wk =   0.0078125
        k(   11) = (   0.0000000   0.1250000  -0.3750000), wk =   0.0078125
        k(   12) = (   0.0000000   0.1250000  -0.2500000), wk =   0.0078125
[...]
        k(   21) = (   0.0000001   0.2886373  -0.0749824), wk =   0.0078125
        k(   22) = (   0.0000001   0.4329560   0.0000000), wk =   0.0078125
        k(   23) = (   0.0000001   0.4329560   0.0749824), wk =   0.0078125
        k(   24) = (   0.0000001   0.4329560   0.1499648), wk =   0.0078125
        k(   25) = (   0.0000001   0.4329560   0.2249472), wk =   0.0078125
        k(   26) = (   0.0000001   0.4329560  -0.2999296), wk =   0.0078125
        k(   27) = (   0.0000001   0.4329560  -0.2249472), wk =   0.0078125
        k(   28) = (   0.0000001   0.4329560  -0.1499648), wk =   0.0078125
        k(   29) = (   0.0000001   0.4329560  -0.0749824), wk =   0.0078125
        k(   30) = (  -0.0000001  -0.5772746  -0.0000000), wk =   0.0039062
        k(   31) = (  -0.0000001  -0.5772746   0.0749824), wk =   0.0078125
        k(   32) = (  -0.0000001  -0.5772746   0.1499648), wk =   0.0078125
        k(   33) = (  -0.0000001  -0.5772746   0.2249472), wk =   0.0078125
        k(   34) = (  -0.0000001  -0.5772746  -0.2999296), wk =   0.0039062
        k(   35) = (   0.1249836   0.0721593   0.0000000), wk =   0.0078125
        k(   36) = (   0.1249836   0.0721593   0.0749824), wk =   0.0078125
        k(   37) = (   0.1249836   0.0721593   0.1499648), wk =   0.0078125
        k(   38) = (   0.1249836   0.0721593   0.2249472), wk =   0.0078125
        k(   39) = (   0.1249836   0.0721593  -0.2999296), wk =   0.0078125
        k(   40) = (   0.1249836   0.0721593  -0.2249472), wk =   0.0078125
        k(   41) = (   0.1249836   0.0721593  -0.1499648), wk =   0.0078125
        k(   42) = (   0.1249836   0.0721593  -0.0749824), wk =   0.0078125
        k(   43) = (   0.1249837   0.2164780   0.0000000), wk =   0.0078125
        k(   44) = (   0.1249837   0.2164780   0.0749824), wk =   0.0078125
        k(   45) = (   0.1249837   0.2164780   0.1499648), wk =   0.0078125
        k(   46) = (   0.1249837   0.2164780   0.2249472), wk =   0.0078125
        k(   47) = (   0.1249837   0.2164780  -0.2999296), wk =   0.0078125
        k(   48) = (   0.1249837   0.2164780  -0.2249472), wk =   0.0078125
        k(   49) = (   0.1249837   0.2164780  -0.1499648), wk =   0.0078125
        k(   50) = (   0.1249837   0.2164780  -0.0749824), wk =   0.0078125
        k(   51) = (   0.1249837   0.3607967   0.0000000), wk =   0.0078125
        k(   52) = (   0.1249837   0.3607967   0.0749824), wk =   0.0078125
        k(   53) = (   0.1249837   0.3607967   0.1499648), wk =   0.0078125
        k(   54) = (   0.1249837   0.3607967   0.2249472), wk =   0.0078125
        k(   55) = (   0.1249837   0.3607967  -0.2999296), wk =   0.0078125
        k(   56) = (   0.1249837   0.3607967  -0.2249472), wk =   0.0078125
        k(   57) = (   0.1249837   0.3607967  -0.1499648), wk =   0.0078125
        k(   58) = (   0.1249837   0.3607967  -0.0749824), wk =   0.0078125
        k(   59) = (   0.1249837   0.5051153   0.0000000), wk =   0.0078125
        k(   60) = (   0.1249837   0.5051153   0.0749824), wk =   0.0078125
[...]
        k(  246) = (  -0.4999345  -0.0000001  -0.1499648), wk =   0.0078125
        k(  247) = (  -0.4999345  -0.0000001  -0.0749824), wk =   0.0078125
        k(  248) = (  -0.4999345   0.1443186  -0.0000000), wk =   0.0078125
        k(  249) = (  -0.4999345   0.1443186   0.0749824), wk =   0.0078125
        k(  250) = (  -0.4999345   0.1443186   0.1499648), wk =   0.0078125
        k(  251) = (  -0.4999345   0.1443186   0.2249472), wk =   0.0078125
        k(  252) = (  -0.4999345   0.1443186  -0.2999296), wk =   0.0078125
        k(  253) = (  -0.4999345   0.1443186  -0.2249472), wk =   0.0078125
        k(  254) = (  -0.4999345   0.1443186  -0.1499648), wk =   0.0078125
        k(  255) = (  -0.4999345   0.1443186  -0.0749824), wk =   0.0078125
        k(  256) = (  -0.4999347  -0.8659120  -0.0000000), wk =   0.0039062
        k(  257) = (  -0.4999347  -0.8659120   0.0749824), wk =   0.0078125
        k(  258) = (  -0.4999347  -0.8659120   0.1499648), wk =   0.0078125
        k(  259) = (  -0.4999347  -0.8659120   0.2249472), wk =   0.0078125
        k(  260) = (  -0.4999347  -0.8659120  -0.2999296), wk =   0.0039062

                       cryst. coord.
        k(    1) = (   0.0000000   0.0000000   0.0000000), wk =   0.0039062
        k(    2) = (  -0.0000000   0.0000000   0.1250000), wk =   0.0078125
        k(    3) = (  -0.0000000   0.0000000   0.2500000), wk =   0.0078125
        k(    4) = (  -0.0000000   0.0000000   0.3750000), wk =   0.0078125
        k(    5) = (   0.0000000  -0.0000000  -0.5000000), wk =   0.0039062
        k(    6) = (  -0.0000000   0.1250000  -0.0000000), wk =   0.0078125
        k(    7) = (  -0.0000000   0.1250000   0.1250000), wk =   0.0078125
        k(    8) = (  -0.0000000   0.1250000   0.2500000), wk =   0.0078125
        k(    9) = (   0.0000000   0.1250000   0.3750000), wk =   0.0078125
        k(   10) = (   0.0000000   0.1250000  -0.5000000), wk =   0.0078125
        k(   11) = (   0.0000000   0.1250000  -0.3750000), wk =   0.0078125
        k(   12) = (   0.0000000   0.1250000  -0.2500000), wk =   0.0078125
        k(   13) = (  -0.0000000   0.1250000  -0.1250000), wk =   0.0078125
        k(   14) = (  -0.0000000   0.2500000  -0.0000000), wk =   0.0078125
        k(   15) = (  -0.0000000   0.2500000   0.1250000), wk =   0.0078125
        k(   16) = (  -0.0000000   0.2500000   0.2500000), wk =   0.0078125
        k(   17) = (  -0.0000000   0.2500000   0.3750000), wk =   0.0078125
        k(   18) = (   0.0000000   0.2500000  -0.5000000), wk =   0.0078125
        k(   19) = (  -0.0000000   0.2500000  -0.3750000), wk =   0.0078125
        k(   20) = (  -0.0000000   0.2500000  -0.2500000), wk =   0.0078125
        k(   21) = (  -0.0000000   0.2500000  -0.1250000), wk =   0.0078125
        k(   22) = (  -0.0000000   0.3750000  -0.0000000), wk =   0.0078125
        k(   23) = (   0.0000000   0.3750000   0.1250000), wk =   0.0078125
        k(   24) = (  -0.0000000   0.3750000   0.2500000), wk =   0.0078125
        k(   25) = (  -0.0000000   0.3750000   0.3750000), wk =   0.0078125
        k(   26) = (  -0.0000000   0.3750000  -0.5000000), wk =   0.0078125
        k(   27) = (   0.0000000   0.3750000  -0.3750000), wk =   0.0078125
        k(   28) = (  -0.0000000   0.3750000  -0.2500000), wk =   0.0078125
        k(   29) = (  -0.0000000   0.3750000  -0.1250000), wk =   0.0078125
        k(   30) = (   0.0000000  -0.5000000   0.0000000), wk =   0.0039062
        k(   31) = (   0.0000000  -0.5000000   0.1250000), wk =   0.0078125
        k(   32) = (   0.0000000  -0.5000000   0.2500000), wk =   0.0078125
        k(   33) = (   0.0000000  -0.5000000   0.3750000), wk =   0.0078125
        k(   34) = (   0.0000000  -0.5000000  -0.5000000), wk =   0.0039062
        k(   35) = (   0.1250000   0.0000000   0.0000000), wk =   0.0078125
        k(   36) = (   0.1250000   0.0000000   0.1250000), wk =   0.0078125
        k(   37) = (   0.1250000   0.0000000   0.2500000), wk =   0.0078125
        k(   38) = (   0.1250000   0.0000000   0.3750000), wk =   0.0078125
        k(   39) = (   0.1250000   0.0000000  -0.5000000), wk =   0.0078125
        k(   40) = (   0.1250000  -0.0000000  -0.3750000), wk =   0.0078125
        k(   41) = (   0.1250000  -0.0000000  -0.2500000), wk =   0.0078125
        k(   42) = (   0.1250000  -0.0000000  -0.1250000), wk =   0.0078125
        k(   43) = (   0.1250000   0.1250000  -0.0000000), wk =   0.0078125
        k(   44) = (   0.1250000   0.1250000   0.1250000), wk =   0.0078125
        k(   45) = (   0.1250000   0.1250000   0.2500000), wk =   0.0078125
        k(   46) = (   0.1250000   0.1250000   0.3750000), wk =   0.0078125
        k(   47) = (   0.1250000   0.1250000  -0.5000000), wk =   0.0078125
        k(   48) = (   0.1250000   0.1250000  -0.3750000), wk =   0.0078125
        k(   49) = (   0.1250000   0.1250000  -0.2500000), wk =   0.0078125
        k(   50) = (   0.1250000   0.1250000  -0.1250000), wk =   0.0078125
        k(   51) = (   0.1250000   0.2500000  -0.0000000), wk =   0.0078125
        k(   52) = (   0.1250000   0.2500000   0.1250000), wk =   0.0078125
        k(   53) = (   0.1250000   0.2500000   0.2500000), wk =   0.0078125
        k(   54) = (   0.1250000   0.2500000   0.3750000), wk =   0.0078125
        k(   55) = (   0.1250000   0.2500000  -0.5000000), wk =   0.0078125
        k(   56) = (   0.1250000   0.2500000  -0.3750000), wk =   0.0078125
        k(   57) = (   0.1250000   0.2500000  -0.2500000), wk =   0.0078125
        k(   58) = (   0.1250000   0.2500000  -0.1250000), wk =   0.0078125
        k(   59) = (   0.1250000   0.3750000  -0.0000000), wk =   0.0078125
        k(   60) = (   0.1250000   0.3750000   0.1250000), wk =   0.0078125
[...]
        k(  246) = (  -0.5000000   0.2500000  -0.2500000), wk =   0.0078125
        k(  247) = (  -0.5000000   0.2500000  -0.1250000), wk =   0.0078125
        k(  248) = (  -0.5000000   0.3750000  -0.0000000), wk =   0.0078125
        k(  249) = (  -0.5000000   0.3750000   0.1250000), wk =   0.0078125
        k(  250) = (  -0.5000000   0.3750000   0.2500000), wk =   0.0078125
        k(  251) = (  -0.5000000   0.3750000   0.3750000), wk =   0.0078125
        k(  252) = (  -0.5000000   0.3750000  -0.5000000), wk =   0.0078125
        k(  253) = (  -0.5000000   0.3750000  -0.3750000), wk =   0.0078125
        k(  254) = (  -0.5000000   0.3750000  -0.2500000), wk =   0.0078125
        k(  255) = (  -0.5000000   0.3750000  -0.1250000), wk =   0.0078125
        k(  256) = (  -0.5000000  -0.5000000   0.0000000), wk =   0.0039062
        k(  257) = (  -0.5000000  -0.5000000   0.1250000), wk =   0.0078125
        k(  258) = (  -0.5000000  -0.5000000   0.2500000), wk =   0.0078125
        k(  259) = (  -0.5000000  -0.5000000   0.3750000), wk =   0.0078125
        k(  260) = (  -0.5000000  -0.5000000  -0.5000000), wk =   0.0039062

     Check: negative core charge=   -0.000003

     Initial potential from superposition of free atoms

     starting charge   31.39954, renormalised to   32.00000
     Starting wfcs are   18 randomized atomic wfcs

     Self-consistent Calculation

[...]

     total energy              =    -315.17064357 Ry
     Harris-Foulkes estimate   =    -315.17064308 Ry
     estimated scf accuracy    <       0.00000108 Ry

     iteration #  7     ecut=    80.00 Ry     beta= 0.50
     Davidson diagonalization with overlap
     ethr =  3.36E-09,  avg # of iterations =  3.0

     End of self-consistent calculation

[...]

          k = 0.3750 0.0722-0.0750 (  3913 PWs)   bands (ev):

[...]

          k =-0.4999-0.8659-0.2999 (  3912 PWs)   bands (ev):

   -66.9624 -66.9624 -33.9769 -33.9769 -33.9483 -33.9483 -33.9314 -33.9314
   -10.7397 -10.7397   1.4504   1.4504   3.5659   3.5659   3.8127   3.8127

     occupation numbers
     1.0000   1.0000   1.0000   1.0000   1.0000   1.0000   1.0000   1.0000
     1.0000   1.0000   1.0000   1.0000   1.0000   1.0000   1.0000   1.0000

     highest occupied level (ev):     4.3158

!    total energy              =    -315.17064372 Ry
     Harris-Foulkes estimate   =    -315.17064400 Ry
     estimated scf accuracy    <       0.00000058 Ry

     The total energy is the sum of the following terms:

     one-electron contribution =    -213.97864451 Ry
     hartree contribution      =     113.06625903 Ry
     xc contribution           =     -48.04026107 Ry
     ewald contribution        =    -166.21799716 Ry

     convergence has been achieved in   7 iterations

     Forces acting on atoms (cartesian axes, Ry/au):

     atom    1 type  2   force =    -0.00000040    0.00000041   -0.02994976
     atom    2 type  2   force =     0.00000002    0.00000056   -0.02994934
     atom    3 type  1   force =    -0.00000003   -0.00000038    0.02994898
     atom    4 type  1   force =     0.00000041   -0.00000060    0.02995012
     The non-local contrib.  to forces
     atom    1 type  2   force =     0.00000002   -0.00000078   -0.05960059
     atom    2 type  2   force =    -0.00000038    0.00000162   -0.05959905
     atom    3 type  1   force =    -0.00000049   -0.00000238    0.02521770
     atom    4 type  1   force =     0.00000147   -0.00000017    0.02521716
     The ionic contribution  to forces
     atom    1 type  2   force =    -0.00001115    0.00001677   -0.09994509
     atom    2 type  2   force =     0.00000476   -0.00000003   -0.09994262
     atom    3 type  1   force =    -0.00000468   -0.00001514    0.09994211
     atom    4 type  1   force =     0.00001107   -0.00000160    0.09994559
     The local contribution  to forces
     atom    1 type  2   force =     0.00001072   -0.00001560    0.12900783
     atom    2 type  2   force =    -0.00000434   -0.00000102    0.12900459
     atom    3 type  1   force =     0.00000515    0.00001716   -0.09522272
     atom    4 type  1   force =    -0.00001214    0.00000118   -0.09522699
     The core correction contribution to forces
     atom    1 type  2   force =     0.00000001   -0.00000000    0.00063865
     atom    2 type  2   force =     0.00000000   -0.00000001    0.00063864
     atom    3 type  1   force =     0.00000000    0.00000000    0.00000000
     atom    4 type  1   force =     0.00000000    0.00000000    0.00000000
     The Hubbard contrib.    to forces
     atom    1 type  2   force =     0.00000000    0.00000000    0.00000000
     atom    2 type  2   force =     0.00000000    0.00000000    0.00000000
     atom    3 type  1   force =     0.00000000    0.00000000    0.00000000
     atom    4 type  1   force =     0.00000000    0.00000000    0.00000000
     The SCF correction term to forces
     atom    1 type  2   force =     0.00000000    0.00000000    0.00000000
     atom    2 type  2   force =     0.00000000    0.00000000    0.00000000
     atom    3 type  1   force =     0.00000000    0.00000000    0.00000000
     atom    4 type  1   force =     0.00000000    0.00000000    0.00000000

     Total force =     0.000000     Total SCF correction =     0.000000

     Computing stress (Cartesian axis) and pressure

          total   stress  (Ry/bohr**3)                   (kbar)     P=   -3.25
  -0.00002089   0.00000000  -0.00000000         -3.07      0.00     -0.00
   0.00000000  -0.00002089   0.00000000          0.00     -3.07      0.00
  -0.00000000   0.00000000  -0.00002458         -0.00      0.00     -3.62

     kinetic stress (kbar)  18771.74      0.00     -0.00
                                0.00  18771.73      0.00
                               -0.00      0.00  18717.36

     local   stress (kbar)  -6795.62     -0.02      0.02
                               -0.02  -6795.63     -0.04
                                0.02     -0.04 -13241.10

     nonloc. stress (kbar)   5129.23      0.00     -0.00
                                0.00   5129.23      0.00
                               -0.00      0.00   5163.37

     hartree stress (kbar)  16265.13      0.01     -0.01
                                0.01  16265.13      0.02
                               -0.01      0.02  18806.02

     exc-cor stress (kbar)  -6664.69      0.00     -0.00
                                0.00  -6664.69      0.00
                               -0.00      0.00  -6660.85

     corecor stress (kbar)   -245.67     -0.00      0.00
                               -0.00   -245.67     -0.00
                                0.00     -0.00   -245.63

     ewald   stress (kbar) -26463.19      0.01     -0.01
                                0.01 -26463.18      0.03
                               -0.01      0.03 -22542.78

     hubbard stress (kbar)      0.00      0.00      0.00
                                0.00      0.00      0.00
                                0.00      0.00      0.00

     london  stress (kbar)      0.00      0.00      0.00
                                0.00      0.00      0.00
                                0.00      0.00      0.00

     DFT-D3  stress (kbar)      0.00      0.00      0.00
                                0.00      0.00      0.00
                                0.00      0.00      0.00

     XDM     stress (kbar)      0.00      0.00      0.00
                                0.00      0.00      0.00
                                0.00      0.00      0.00

     dft-nl  stress (kbar)      0.00      0.00      0.00
                                0.00      0.00      0.00
                                0.00      0.00      0.00

     TS-vdW  stress (kbar)      0.00      0.00      0.00
                                0.00      0.00      0.00
                                0.00      0.00      0.00

     Writing output data file ZnO.save/

     General routines

     Parallel routines

   This run was terminated on:  16: 1:25  16Jun2022

   JOB DONE.