     Program PWSCF v.6.4.1 starts on  8Dec2021 at 23:23:45

     K-points division:     npool     =       4
     R & G space division:  proc/nbgrp/npool/nimage =      16
     Waiting for input...
     Reading input from standard input
Warning: card &IONS ignored
Warning: card   UPSCALE           = 100.D0, ignored
Warning: card / ignored
Warning: card &CELL ignored
Warning: card   CELL_DYNAMICS     = 'BFGS' ignored
Warning: card   PRESS_CONV_THR    = 0.5D0 ignored
Warning: card   CELL_DOFREE = 'ALL' ignored
Warning: card / ignored

     Current dimensions of program PWSCF are:
     Max number of different atomic species (ntypx) = 10
     Max number of k-points (npk) =  40000
     Max angular momentum in pseudopotentials (lmaxx) =  3

     bravais-lattice index     =            0
     lattice parameter (alat)  =       6.5989  a.u.
     unit-cell volume          =     298.9538 (a.u.)^3
     number of atoms/cell      =            4
     number of atomic types    =            2
     number of electrons       =        32.00
     number of Kohn-Sham states=           16
     kinetic-energy cutoff     =      50.0000  Ry
     charge density cutoff     =     250.0000  Ry
     convergence threshold     =      1.0E-06
     mixing beta               =       0.5000
     number of iterations used =            8  plain     mixing
     Exchange-correlation      = SLA  PW   PSX  PSC ( 1  4 10  8 0 0)

     celldm(1)=   6.598934  celldm(2)=   0.000000  celldm(3)=   0.000000
     celldm(4)=   0.000000  celldm(5)=   0.000000  celldm(6)=   0.000000

     crystal axes: (cart. coord. in units of alat)
               a(1) = (   1.000000   0.000000   0.000000 )
               a(2) = (  -0.500000   0.866026   0.000000 )
               a(3) = (   0.000000   0.000000   1.201301 )

     reciprocal axes: (cart. coord. in units 2 pi/alat)
               b(1) = (  1.000000  0.577350  0.000000 )
               b(2) = (  0.000000  1.154700  0.000000 )
               b(3) = (  0.000000  0.000000  0.832431 )

     PseudoPot. # 1 for Mg read from file:
     ./GBRV_PBEsol/mg_pbesol_v1.4.uspp.F.UPF
     MD5 check sum: 4059f37963cf5867752dbf5ab2400678
     Pseudo is Ultrasoft, Zval = 10.0
     Generated by new atomic code, or converted to UPF format
     Using radial grid of  821 points,  7 beta functions with:
                l(1) =   0
                l(2) =   0
                l(3) =   0
                l(4) =   1
                l(5) =   1
                l(6) =   2
                l(7) =   2
     Q(r) pseudized with  8 coefficients,  rinner =    1.200   1.200   1.200
                                                       1.200   1.200

     PseudoPot. # 2 for O  read from file:
     ./GBRV_PBEsol/o_pbesol_v1.2.uspp.F.UPF
     MD5 check sum: 501638753501ef6325af9037351f7734
     Pseudo is Ultrasoft + core correction, Zval =  6.0
     Generated by new atomic code, or converted to UPF format
     Using radial grid of  737 points,  5 beta functions with:
                l(1) =   0
                l(2) =   0
                l(3) =   1
                l(4) =   1
                l(5) =   2
     Q(r) pseudized with  8 coefficients,  rinner =    0.900   0.900   0.900
                                                       0.900   0.900

     atomic species   valence    mass     pseudopotential
        Mg            10.00    24.30500     Mg( 1.00)
        O              6.00    15.99900     O ( 1.00)

     No symmetry found

                                    s                        frac. trans.

      isym =  1     identity

 cryst.   s( 1) = (     1          0          0      )
                  (     0          1          0      )
                  (     0          0          1      )

 cart.    s( 1) = (  1.0000000  0.0000000  0.0000000 )
                  (  0.0000000  1.0000000  0.0000000 )
                  (  0.0000000  0.0000000  1.0000000 )

   Cartesian axes

     site n.     atom                  positions (alat units)
         1           O   tau(   1) = (   0.4999994   0.2886750   0.0000000  )
         2           O   tau(   2) = (  -0.0000001   0.5773499   0.6006505  )
         3           Mg  tau(   3) = (   0.4999994   0.2886750   0.6006505  )
         4           Mg  tau(   4) = (  -0.0000001   0.5773499   0.0000000  )

   Crystallographic axes

     site n.     atom                  positions (cryst. coord.)
         1           O   tau(   1) = (  0.6666660  0.3333330  0.0000000  )
         2           O   tau(   2) = (  0.3333330  0.6666660  0.5000000  )
         3           Mg  tau(   3) = (  0.6666660  0.3333330  0.5000000  )
         4           Mg  tau(   4) = (  0.3333330  0.6666660  0.0000000  )

     number of k points=   260
                       cart. coord. in units 2pi/alat
        k(    1) = (   0.0000000   0.0000000   0.0000000), wk =   0.0039062
        k(    2) = (   0.0000000   0.0000000   0.1040539), wk =   0.0078125
        k(    3) = (   0.0000000   0.0000000   0.2081077), wk =   0.0078125
        k(    4) = (   0.0000000   0.0000000   0.3121616), wk =   0.0078125
        k(    5) = (   0.0000000   0.0000000  -0.4162154), wk =   0.0039062
        k(    6) = (   0.0000000   0.1443375   0.0000000), wk =   0.0078125
        k(    7) = (   0.0000000   0.1443375   0.1040539), wk =   0.0078125
        k(    8) = (   0.0000000   0.1443375   0.2081077), wk =   0.0078125
        k(    9) = (   0.0000000   0.1443375   0.3121616), wk =   0.0078125
        k(   10) = (   0.0000000   0.1443375  -0.4162154), wk =   0.0078125
        k(   11) = (   0.0000000   0.1443375  -0.3121616), wk =   0.0078125
        k(   12) = (   0.0000000   0.1443375  -0.2081077), wk =   0.0078125
        k(   13) = (   0.0000000   0.1443375  -0.1040539), wk =   0.0078125
        k(   14) = (   0.0000000   0.2886750   0.0000000), wk =   0.0078125
        k(   15) = (   0.0000000   0.2886750   0.1040539), wk =   0.0078125
        k(   16) = (   0.0000000   0.2886750   0.2081077), wk =   0.0078125
        k(   17) = (   0.0000000   0.2886750   0.3121616), wk =   0.0078125
        k(   18) = (   0.0000000   0.2886750  -0.4162154), wk =   0.0078125
        k(   19) = (   0.0000000   0.2886750  -0.3121616), wk =   0.0078125
        k(   20) = (   0.0000000   0.2886750  -0.2081077), wk =   0.0078125
        k(   21) = (   0.0000000   0.2886750  -0.1040539), wk =   0.0078125
        k(   22) = (   0.0000000   0.4330125   0.0000000), wk =   0.0078125
        k(   23) = (   0.0000000   0.4330125   0.1040539), wk =   0.0078125
        k(   24) = (   0.0000000   0.4330125   0.2081077), wk =   0.0078125
        k(   25) = (   0.0000000   0.4330125   0.3121616), wk =   0.0078125
        k(   26) = (   0.0000000   0.4330125  -0.4162154), wk =   0.0078125
        k(   27) = (   0.0000000   0.4330125  -0.3121616), wk =   0.0078125
        k(   28) = (   0.0000000   0.4330125  -0.2081077), wk =   0.0078125
        k(   29) = (   0.0000000   0.4330125  -0.1040539), wk =   0.0078125
        k(   30) = (   0.0000000  -0.5773500   0.0000000), wk =   0.0039062
        k(   31) = (   0.0000000  -0.5773500   0.1040539), wk =   0.0078125
        k(   32) = (   0.0000000  -0.5773500   0.2081077), wk =   0.0078125
        k(   33) = (   0.0000000  -0.5773500   0.3121616), wk =   0.0078125
        k(   34) = (   0.0000000  -0.5773500  -0.4162154), wk =   0.0039062
        k(   35) = (   0.1250000   0.0721688   0.0000000), wk =   0.0078125
        k(   36) = (   0.1250000   0.0721688   0.1040539), wk =   0.0078125
        k(   37) = (   0.1250000   0.0721688   0.2081077), wk =   0.0078125
        k(   38) = (   0.1250000   0.0721688   0.3121616), wk =   0.0078125
        k(   39) = (   0.1250000   0.0721688  -0.4162154), wk =   0.0078125
        k(   40) = (   0.1250000   0.0721688  -0.3121616), wk =   0.0078125
        k(   41) = (   0.1250000   0.0721688  -0.2081077), wk =   0.0078125
        k(   42) = (   0.1250000   0.0721688  -0.1040539), wk =   0.0078125
        k(   43) = (   0.1250000   0.2165063   0.0000000), wk =   0.0078125
        k(   44) = (   0.1250000   0.2165063   0.1040539), wk =   0.0078125
        k(   45) = (   0.1250000   0.2165063   0.2081077), wk =   0.0078125
        k(   46) = (   0.1250000   0.2165063   0.3121616), wk =   0.0078125
        k(   47) = (   0.1250000   0.2165063  -0.4162154), wk =   0.0078125
        k(   48) = (   0.1250000   0.2165063  -0.3121616), wk =   0.0078125
        k(   49) = (   0.1250000   0.2165063  -0.2081077), wk =   0.0078125
        k(   50) = (   0.1250000   0.2165063  -0.1040539), wk =   0.0078125
        k(   51) = (   0.1250000   0.3608438   0.0000000), wk =   0.0078125
        k(   52) = (   0.1250000   0.3608438   0.1040539), wk =   0.0078125
        k(   53) = (   0.1250000   0.3608438   0.2081077), wk =   0.0078125
        k(   54) = (   0.1250000   0.3608438   0.3121616), wk =   0.0078125
        k(   55) = (   0.1250000   0.3608438  -0.4162154), wk =   0.0078125
        k(   56) = (   0.1250000   0.3608438  -0.3121616), wk =   0.0078125
        k(   57) = (   0.1250000   0.3608438  -0.2081077), wk =   0.0078125
        k(   58) = (   0.1250000   0.3608438  -0.1040539), wk =   0.0078125
        k(   59) = (   0.1250000   0.5051813   0.0000000), wk =   0.0078125
        k(   60) = (   0.1250000   0.5051813   0.1040539), wk =   0.0078125
[...]
        k(  246) = (  -0.5000000  -0.0000001  -0.2081077), wk =   0.0078125
        k(  247) = (  -0.5000000  -0.0000001  -0.1040539), wk =   0.0078125
        k(  248) = (  -0.5000000   0.1443374   0.0000000), wk =   0.0078125
        k(  249) = (  -0.5000000   0.1443374   0.1040539), wk =   0.0078125
        k(  250) = (  -0.5000000   0.1443374   0.2081077), wk =   0.0078125
        k(  251) = (  -0.5000000   0.1443374   0.3121616), wk =   0.0078125
        k(  252) = (  -0.5000000   0.1443374  -0.4162154), wk =   0.0078125
        k(  253) = (  -0.5000000   0.1443374  -0.3121616), wk =   0.0078125
        k(  254) = (  -0.5000000   0.1443374  -0.2081077), wk =   0.0078125
        k(  255) = (  -0.5000000   0.1443374  -0.1040539), wk =   0.0078125
        k(  256) = (  -0.5000000  -0.8660251   0.0000000), wk =   0.0039062
        k(  257) = (  -0.5000000  -0.8660251   0.1040539), wk =   0.0078125
        k(  258) = (  -0.5000000  -0.8660251   0.2081077), wk =   0.0078125
        k(  259) = (  -0.5000000  -0.8660251   0.3121616), wk =   0.0078125
        k(  260) = (  -0.5000000  -0.8660251  -0.4162154), wk =   0.0039062

                       cryst. coord.
        k(    1) = (   0.0000000   0.0000000   0.0000000), wk =   0.0039062
        k(    2) = (   0.0000000   0.0000000   0.1250000), wk =   0.0078125
        k(    3) = (   0.0000000   0.0000000   0.2500000), wk =   0.0078125
        k(    4) = (   0.0000000   0.0000000   0.3750000), wk =   0.0078125
        k(    5) = (   0.0000000   0.0000000  -0.5000000), wk =   0.0039062
        k(    6) = (   0.0000000   0.1250000   0.0000000), wk =   0.0078125
        k(    7) = (   0.0000000   0.1250000   0.1250000), wk =   0.0078125
        k(    8) = (   0.0000000   0.1250000   0.2500000), wk =   0.0078125
        k(    9) = (   0.0000000   0.1250000   0.3750000), wk =   0.0078125
        k(   10) = (   0.0000000   0.1250000  -0.5000000), wk =   0.0078125
        k(   11) = (   0.0000000   0.1250000  -0.3750000), wk =   0.0078125
        k(   12) = (   0.0000000   0.1250000  -0.2500000), wk =   0.0078125
        k(   13) = (   0.0000000   0.1250000  -0.1250000), wk =   0.0078125
        k(   14) = (   0.0000000   0.2500000   0.0000000), wk =   0.0078125
        k(   15) = (   0.0000000   0.2500000   0.1250000), wk =   0.0078125
        k(   16) = (   0.0000000   0.2500000   0.2500000), wk =   0.0078125
        k(   17) = (   0.0000000   0.2500000   0.3750000), wk =   0.0078125
        k(   18) = (   0.0000000   0.2500000  -0.5000000), wk =   0.0078125
        k(   19) = (   0.0000000   0.2500000  -0.3750000), wk =   0.0078125
        k(   20) = (   0.0000000   0.2500000  -0.2500000), wk =   0.0078125
        k(   21) = (   0.0000000   0.2500000  -0.1250000), wk =   0.0078125
        k(   22) = (   0.0000000   0.3750000   0.0000000), wk =   0.0078125
        k(   23) = (   0.0000000   0.3750000   0.1250000), wk =   0.0078125
        k(   24) = (   0.0000000   0.3750000   0.2500000), wk =   0.0078125
        k(   25) = (   0.0000000   0.3750000   0.3750000), wk =   0.0078125
        k(   26) = (   0.0000000   0.3750000  -0.5000000), wk =   0.0078125
        k(   27) = (   0.0000000   0.3750000  -0.3750000), wk =   0.0078125
        k(   28) = (   0.0000000   0.3750000  -0.2500000), wk =   0.0078125
        k(   29) = (   0.0000000   0.3750000  -0.1250000), wk =   0.0078125
        k(   30) = (   0.0000000  -0.5000000   0.0000000), wk =   0.0039062
        k(   31) = (   0.0000000  -0.5000000   0.1250000), wk =   0.0078125
        k(   32) = (   0.0000000  -0.5000000   0.2500000), wk =   0.0078125
        k(   33) = (   0.0000000  -0.5000000   0.3750000), wk =   0.0078125
        k(   34) = (   0.0000000  -0.5000000  -0.5000000), wk =   0.0039062
        k(   35) = (   0.1250000   0.0000000   0.0000000), wk =   0.0078125
        k(   36) = (   0.1250000   0.0000000   0.1250000), wk =   0.0078125
        k(   37) = (   0.1250000   0.0000000   0.2500000), wk =   0.0078125
        k(   38) = (   0.1250000   0.0000000   0.3750000), wk =   0.0078125
        k(   39) = (   0.1250000   0.0000000  -0.5000000), wk =   0.0078125
        k(   40) = (   0.1250000   0.0000000  -0.3750000), wk =   0.0078125
        k(   41) = (   0.1250000   0.0000000  -0.2500000), wk =   0.0078125
        k(   42) = (   0.1250000   0.0000000  -0.1250000), wk =   0.0078125
        k(   43) = (   0.1250000   0.1250000   0.0000000), wk =   0.0078125
        k(   44) = (   0.1250000   0.1250000   0.1250000), wk =   0.0078125
        k(   45) = (   0.1250000   0.1250000   0.2500000), wk =   0.0078125
        k(   46) = (   0.1250000   0.1250000   0.3750000), wk =   0.0078125
        k(   47) = (   0.1250000   0.1250000  -0.5000000), wk =   0.0078125
        k(   48) = (   0.1250000   0.1250000  -0.3750000), wk =   0.0078125
        k(   49) = (   0.1250000   0.1250000  -0.2500000), wk =   0.0078125
        k(   50) = (   0.1250000   0.1250000  -0.1250000), wk =   0.0078125
        k(   51) = (   0.1250000   0.2500000   0.0000000), wk =   0.0078125
        k(   52) = (   0.1250000   0.2500000   0.1250000), wk =   0.0078125
        k(   53) = (   0.1250000   0.2500000   0.2500000), wk =   0.0078125
        k(   54) = (   0.1250000   0.2500000   0.3750000), wk =   0.0078125
        k(   55) = (   0.1250000   0.2500000  -0.5000000), wk =   0.0078125
        k(   56) = (   0.1250000   0.2500000  -0.3750000), wk =   0.0078125
        k(   57) = (   0.1250000   0.2500000  -0.2500000), wk =   0.0078125
        k(   58) = (   0.1250000   0.2500000  -0.1250000), wk =   0.0078125
        k(   59) = (   0.1250000   0.3750000   0.0000000), wk =   0.0078125
        k(   60) = (   0.1250000   0.3750000   0.1250000), wk =   0.0078125
[...]
        k(  246) = (  -0.5000000   0.2500000  -0.2500000), wk =   0.0078125
        k(  247) = (  -0.5000000   0.2500000  -0.1250000), wk =   0.0078125
        k(  248) = (  -0.5000000   0.3750000   0.0000000), wk =   0.0078125
        k(  249) = (  -0.5000000   0.3750000   0.1250000), wk =   0.0078125
        k(  250) = (  -0.5000000   0.3750000   0.2500000), wk =   0.0078125
        k(  251) = (  -0.5000000   0.3750000   0.3750000), wk =   0.0078125
        k(  252) = (  -0.5000000   0.3750000  -0.5000000), wk =   0.0078125
        k(  253) = (  -0.5000000   0.3750000  -0.3750000), wk =   0.0078125
        k(  254) = (  -0.5000000   0.3750000  -0.2500000), wk =   0.0078125
        k(  255) = (  -0.5000000   0.3750000  -0.1250000), wk =   0.0078125
        k(  256) = (  -0.5000000  -0.5000000   0.0000000), wk =   0.0039062
        k(  257) = (  -0.5000000  -0.5000000   0.1250000), wk =   0.0078125
        k(  258) = (  -0.5000000  -0.5000000   0.2500000), wk =   0.0078125
        k(  259) = (  -0.5000000  -0.5000000   0.3750000), wk =   0.0078125
        k(  260) = (  -0.5000000  -0.5000000  -0.5000000), wk =   0.0039062

     Check: negative core charge=   -0.000003

     Initial potential from superposition of free atoms

     starting charge   31.39954, renormalised to   32.00000
     Starting wfcs are   18 randomized atomic wfcs

     Self-consistent Calculation

     iteration #  1     ecut=    50.00 Ry     beta= 0.50
     Davidson diagonalization with overlap
     ethr =  1.00E-02,  avg # of iterations =  2.0

     total energy              =    -314.93218312 Ry
     Harris-Foulkes estimate   =    -315.46553995 Ry
     estimated scf accuracy    <       0.84000927 Ry

[...]

     total energy              =    -315.19238985 Ry
     Harris-Foulkes estimate   =    -315.19239035 Ry
     estimated scf accuracy    <       0.00000238 Ry

     iteration #  7     ecut=    50.00 Ry     beta= 0.50
     Davidson diagonalization with overlap
     ethr =  7.43E-09,  avg # of iterations =  2.0

     End of self-consistent calculation

          k = 0.0000 0.0000 0.0000 (  1811 PWs)   bands (ev):

   -66.1405 -66.1280 -33.1487 -33.1283 -33.1283 -33.1013 -33.1013 -33.0733
   -11.0507  -9.6434   2.0956   4.0143   4.0143   4.9404   4.9404   5.7474

     occupation numbers
     1.0000   1.0000   1.0000   1.0000   1.0000   1.0000   1.0000   1.0000
     1.0000   1.0000   1.0000   1.0000   1.0000   1.0000   1.0000   1.0000

[...]

          k = 0.3750 0.0722-0.1041 (  1784 PWs)   bands (ev):

[...]

          k =-0.5000-0.2887 0.0000 (  1768 PWs)   bands (ev):

[...]

          k =-0.5000-0.8660-0.4162 (  1780 PWs)   bands (ev):

   -66.1335 -66.1335 -33.1574 -33.1574 -33.1185 -33.1184 -33.0857 -33.0857
   -10.0287 -10.0282   1.8502   1.8503   4.2084   4.2088   4.9235   4.9236

     occupation numbers
     1.0000   1.0000   1.0000   1.0000   1.0000   1.0000   1.0000   1.0000
     1.0000   1.0000   1.0000   1.0000   1.0000   1.0000   1.0000   1.0000

     highest occupied level (ev):     5.7474

!    total energy              =    -315.19239010 Ry
     Harris-Foulkes estimate   =    -315.19239017 Ry
     estimated scf accuracy    <       0.00000011 Ry

     The total energy is the sum of the following terms:

     one-electron contribution =    -206.97239254 Ry
     hartree contribution      =     110.52887621 Ry
     xc contribution           =     -48.10868257 Ry
     ewald contribution        =    -170.64019121 Ry

     convergence has been achieved in   7 iterations

     Forces acting on atoms (cartesian axes, Ry/au):

     atom    1 type  2   force =     0.00000072   -0.00000078    0.00000018
     atom    2 type  2   force =     0.00000000    0.00000041   -0.00000009
     atom    3 type  1   force =    -0.00000027   -0.00000054   -0.00000023
     atom    4 type  1   force =    -0.00000045    0.00000092    0.00000015
     The non-local contrib.  to forces
     atom    1 type  2   force =     0.00000031    0.00000012   -0.00000001
     atom    2 type  2   force =    -0.00000022   -0.00000002   -0.00000005
     atom    3 type  1   force =     0.00000162   -0.00000200   -0.00000005
     atom    4 type  1   force =    -0.00000158    0.00000197    0.00000011
     The ionic contribution  to forces
     atom    1 type  2   force =     0.00001428   -0.00001786   -0.00000000
     atom    2 type  2   force =    -0.00001428    0.00001786    0.00000000
     atom    3 type  1   force =     0.00001626   -0.00002097    0.00000000
     atom    4 type  1   force =    -0.00001626    0.00002097   -0.00000000
     The local contribution  to forces
     atom    1 type  2   force =    -0.00001467    0.00001728   -0.00000047
     atom    2 type  2   force =     0.00001436   -0.00001764    0.00000056
     atom    3 type  1   force =    -0.00001789    0.00002256    0.00000023
     atom    4 type  1   force =     0.00001763   -0.00002235   -0.00000045
     The core correction contribution to forces
     atom    1 type  2   force =    -0.00000002    0.00000001   -0.00000000
     atom    2 type  2   force =     0.00000002   -0.00000001    0.00000000
     atom    3 type  1   force =     0.00000000    0.00000000    0.00000000
     atom    4 type  1   force =     0.00000000    0.00000000    0.00000000
     The Hubbard contrib.    to forces
     atom    1 type  2   force =     0.00000000    0.00000000    0.00000000
     atom    2 type  2   force =     0.00000000    0.00000000    0.00000000
     atom    3 type  1   force =     0.00000000    0.00000000    0.00000000
     atom    4 type  1   force =     0.00000000    0.00000000    0.00000000
     The SCF correction term to forces
     atom    1 type  2   force =     0.00000052   -0.00000008    0.00000059
     atom    2 type  2   force =    -0.00000016    0.00000047   -0.00000068
     atom    3 type  1   force =    -0.00000055    0.00000013   -0.00000048
     atom    4 type  1   force =    -0.00000053    0.00000058    0.00000042

     Total force =     0.000002     Total SCF correction =     0.000002
     SCF correction compared to forces is large: reduce conv_thr to get better values

     Computing stress (Cartesian axis) and pressure

          total   stress  (Ry/bohr**3)                   (kbar)     P=   -0.95
  -0.00000576  -0.00000000   0.00000000         -0.85     -0.00      0.00
  -0.00000000  -0.00000578  -0.00000000         -0.00     -0.85     -0.00
   0.00000000  -0.00000000  -0.00000792          0.00     -0.00     -1.17

     kinetic stress (kbar)  20350.91     -0.00      0.00
                               -0.00  20350.91      0.00
                                0.00      0.00  20382.82

     local   stress (kbar)  -2602.63      0.10      0.00
                                0.10  -2602.48      0.00
                                0.00      0.00 -20485.27

     nonloc. stress (kbar)   5557.53     -0.00     -0.00
                               -0.00   5557.53     -0.00
                               -0.00     -0.00   5558.94

     hartree stress (kbar)  15572.06     -0.04     -0.00
                               -0.04  15572.01      0.00
                               -0.00      0.00  23243.45

     exc-cor stress (kbar)  -7232.32     -0.00      0.00
                               -0.00  -7232.32      0.00
                                0.00      0.00  -7228.73

     corecor stress (kbar)   -266.27      0.00      0.00
                                0.00   -266.27      0.00
                                0.00      0.00   -266.47

     ewald   stress (kbar) -31380.14     -0.06      0.00
                               -0.06 -31380.23     -0.00
                                0.00     -0.00 -21205.91

     hubbard stress (kbar)      0.00      0.00      0.00
                                0.00      0.00      0.00
                                0.00      0.00      0.00

     london  stress (kbar)      0.00      0.00      0.00
                                0.00      0.00      0.00
                                0.00      0.00      0.00

     DFT-D3  stress (kbar)      0.00      0.00      0.00
                                0.00      0.00      0.00
                                0.00      0.00      0.00

     XDM     stress (kbar)      0.00      0.00      0.00
                                0.00      0.00      0.00
                                0.00      0.00      0.00

     dft-nl  stress (kbar)      0.00      0.00      0.00
                                0.00      0.00      0.00
                                0.00      0.00      0.00

     TS-vdW  stress (kbar)      0.00      0.00      0.00
                                0.00      0.00      0.00
                                0.00      0.00      0.00

     Writing output data file MgO.save/

     General routines

     Parallel routines

   This run was terminated on:  23:23:53   8Dec2021

   JOB DONE.