     Program PWSCF v.6.4.1 starts on 16Jun2022 at 15: 2:39

     K-points division:     npool     =       4
     R & G space division:  proc/nbgrp/npool/nimage =      16
     Waiting for input...
     Reading input from standard input

     Current dimensions of program PWSCF are:
     Max number of different atomic species (ntypx) = 10
     Max number of k-points (npk) =  40000
     Max angular momentum in pseudopotentials (lmaxx) =  3

     bravais-lattice index     =            0
     lattice parameter (alat)  =       6.2601  a.u.
     unit-cell volume          =     315.8069 (a.u.)^3
     number of atoms/cell      =            4
     number of atomic types    =            2
     number of electrons       =        52.00
     number of Kohn-Sham states=           26
     kinetic-energy cutoff     =      80.0000  Ry
     charge density cutoff     =     600.0000  Ry
     convergence threshold     =      1.0E-06
     mixing beta               =       0.5000
     number of iterations used =            8  plain     mixing
     Exchange-correlation      = SLA  PW   PSX  PSC ( 1  4 10  8 0 0)
     nstep                     =          200

     celldm(1)=   6.260095  celldm(2)=   0.000000  celldm(3)=   0.000000
     celldm(4)=   0.000000  celldm(5)=   0.000000  celldm(6)=   0.000000

     crystal axes: (cart. coord. in units of alat)
               a(1) = (   1.000000   0.000000  -0.000000 )
               a(2) = (  -0.500000   0.866025   0.000000 )
               a(3) = (  -0.000000   0.000000   1.486443 )

     reciprocal axes: (cart. coord. in units 2 pi/alat)
               b(1) = (  1.000000  0.577350  0.000000 )
               b(2) = ( -0.000000  1.154701 -0.000000 )
               b(3) = (  0.000000 -0.000000  0.672747 )

     PseudoPot. # 1 for Zn read from file:
     ./GBRV_PBEsol/zn_pbesol_v1.uspp.F.UPF
     MD5 check sum: 7d8615e52efe7c1e2b1899de8658bae2
     Pseudo is Ultrasoft, Zval = 20.0
     Generated by new atomic code, or converted to UPF format
     Using radial grid of  943 points,  6 beta functions with:
                l(1) =   0
                l(2) =   0
                l(3) =   1
                l(4) =   1
                l(5) =   2
                l(6) =   2
     Q(r) pseudized with  8 coefficients,  rinner =    1.100   1.100   1.100
                                                       1.100   1.100

     PseudoPot. # 2 for O  read from file:
     ./GBRV_PBEsol/o_pbesol_v1.2.uspp.F.UPF
     MD5 check sum: 501638753501ef6325af9037351f7734
     Pseudo is Ultrasoft + core correction, Zval =  6.0
     Generated by new atomic code, or converted to UPF format
     Using radial grid of  737 points,  5 beta functions with:
                l(1) =   0
                l(2) =   0
                l(3) =   1
                l(4) =   1
                l(5) =   2
     Q(r) pseudized with  8 coefficients,  rinner =    0.900   0.900   0.900
                                                       0.900   0.900

     atomic species   valence    mass     pseudopotential
        Zn            20.00    65.38000     Zn( 1.00)
        O              6.00    15.99900     O ( 1.00)

     No symmetry found

                                    s                        frac. trans.

      isym =  1     identity

 cryst.   s( 1) = (     1          0          0      )
                  (     0          1          0      )
                  (     0          0          1      )

 cart.    s( 1) = (  1.0000000 -0.0000000  0.0000000 )
                  ( -0.0000000  1.0000000 -0.0000000 )
                  (  0.0000000 -0.0000000  1.0000000 )

   Cartesian axes

     site n.     atom                  positions (alat units)
         1           O   tau(   1) = (   0.5000002   0.2886754   0.0109192  )
         2           O   tau(   2) = (   0.0000001   0.5773494   0.7541406  )
         3           Zn  tau(   3) = (   0.5000000   0.2886748   0.8715822  )
         4           Zn  tau(   4) = (  -0.0000002   0.5773511   1.6148037  )

   Crystallographic axes

     site n.     atom                  positions (cryst. coord.)
         1           O   tau(   1) = (  0.6666670  0.3333337  0.0073459  )
         2           O   tau(   2) = (  0.3333329  0.6666657  0.5073458  )
         3           Zn  tau(   3) = (  0.6666664  0.3333329  0.5863542  )
         4           Zn  tau(   4) = (  0.3333336  0.6666677  1.0863542  )

     number of k points=   260
                       cart. coord. in units 2pi/alat
        k(    1) = (   0.0000000   0.0000000   0.0000000), wk =   0.0039062
        k(    2) = (   0.0000000  -0.0000000   0.0840934), wk =   0.0078125
        k(    3) = (   0.0000000  -0.0000000   0.1681867), wk =   0.0078125
        k(    4) = (   0.0000000  -0.0000000   0.2522801), wk =   0.0078125
        k(    5) = (  -0.0000000   0.0000000  -0.3363734), wk =   0.0039062
        k(    6) = (  -0.0000000   0.1443376  -0.0000000), wk =   0.0078125
        k(    7) = (  -0.0000000   0.1443376   0.0840934), wk =   0.0078125
        k(    8) = (   0.0000000   0.1443376   0.1681867), wk =   0.0078125
        k(    9) = (   0.0000000   0.1443376   0.2522801), wk =   0.0078125
        k(   10) = (  -0.0000000   0.1443376  -0.3363734), wk =   0.0078125
        k(   11) = (  -0.0000000   0.1443376  -0.2522801), wk =   0.0078125
        k(   12) = (  -0.0000000   0.1443376  -0.1681867), wk =   0.0078125
        k(   13) = (  -0.0000000   0.1443376  -0.0840934), wk =   0.0078125
        k(   14) = (  -0.0000000   0.2886752  -0.0000000), wk =   0.0078125
        k(   15) = (  -0.0000000   0.2886752   0.0840934), wk =   0.0078125
        k(   16) = (  -0.0000000   0.2886752   0.1681867), wk =   0.0078125
        k(   17) = (  -0.0000000   0.2886752   0.2522801), wk =   0.0078125
        k(   18) = (  -0.0000000   0.2886752  -0.3363734), wk =   0.0078125
        k(   19) = (  -0.0000000   0.2886752  -0.2522801), wk =   0.0078125
        k(   20) = (  -0.0000000   0.2886752  -0.1681867), wk =   0.0078125
        k(   21) = (  -0.0000000   0.2886752  -0.0840934), wk =   0.0078125
        k(   22) = (  -0.0000000   0.4330127  -0.0000000), wk =   0.0078125
        k(   23) = (  -0.0000000   0.4330127   0.0840934), wk =   0.0078125
        k(   24) = (  -0.0000000   0.4330127   0.1681867), wk =   0.0078125
        k(   25) = (  -0.0000000   0.4330127   0.2522801), wk =   0.0078125
        k(   26) = (  -0.0000000   0.4330127  -0.3363734), wk =   0.0078125
        k(   27) = (  -0.0000000   0.4330127  -0.2522801), wk =   0.0078125
        k(   28) = (  -0.0000000   0.4330127  -0.1681867), wk =   0.0078125
        k(   29) = (  -0.0000000   0.4330127  -0.0840934), wk =   0.0078125
        k(   30) = (   0.0000000  -0.5773503   0.0000000), wk =   0.0039062
        k(   31) = (   0.0000000  -0.5773503   0.0840934), wk =   0.0078125
        k(   32) = (   0.0000000  -0.5773503   0.1681867), wk =   0.0078125
        k(   33) = (   0.0000000  -0.5773503   0.2522801), wk =   0.0078125
        k(   34) = (   0.0000000  -0.5773503  -0.3363734), wk =   0.0039062
        k(   35) = (   0.1250000   0.0721688   0.0000000), wk =   0.0078125
        k(   36) = (   0.1250000   0.0721688   0.0840934), wk =   0.0078125
        k(   37) = (   0.1250000   0.0721688   0.1681867), wk =   0.0078125
        k(   38) = (   0.1250000   0.0721688   0.2522801), wk =   0.0078125
        k(   39) = (   0.1250000   0.0721688  -0.3363734), wk =   0.0078125
        k(   40) = (   0.1250000   0.0721688  -0.2522801), wk =   0.0078125
        k(   41) = (   0.1250000   0.0721688  -0.1681867), wk =   0.0078125
        k(   42) = (   0.1250000   0.0721688  -0.0840934), wk =   0.0078125
        k(   43) = (   0.1250000   0.2165064   0.0000000), wk =   0.0078125
        k(   44) = (   0.1250000   0.2165064   0.0840934), wk =   0.0078125
        k(   45) = (   0.1250000   0.2165064   0.1681867), wk =   0.0078125
        k(   46) = (   0.1250000   0.2165064   0.2522801), wk =   0.0078125
        k(   47) = (   0.1250000   0.2165064  -0.3363734), wk =   0.0078125
        k(   48) = (   0.1250000   0.2165064  -0.2522801), wk =   0.0078125
        k(   49) = (   0.1250000   0.2165064  -0.1681867), wk =   0.0078125
        k(   50) = (   0.1250000   0.2165064  -0.0840934), wk =   0.0078125
        k(   51) = (   0.1250000   0.3608439   0.0000000), wk =   0.0078125
        k(   52) = (   0.1250000   0.3608439   0.0840934), wk =   0.0078125
        k(   53) = (   0.1250000   0.3608439   0.1681867), wk =   0.0078125
        k(   54) = (   0.1250000   0.3608439   0.2522801), wk =   0.0078125
        k(   55) = (   0.1250000   0.3608439  -0.3363734), wk =   0.0078125
        k(   56) = (   0.1250000   0.3608439  -0.2522801), wk =   0.0078125
        k(   57) = (   0.1250000   0.3608439  -0.1681867), wk =   0.0078125
        k(   58) = (   0.1250000   0.3608439  -0.0840934), wk =   0.0078125
        k(   59) = (   0.1250000   0.5051815   0.0000000), wk =   0.0078125
        k(   60) = (   0.1250000   0.5051815   0.0840934), wk =   0.0078125
[...]
        k(  246) = (  -0.5000000   0.0000000  -0.1681867), wk =   0.0078125
        k(  247) = (  -0.5000000   0.0000000  -0.0840934), wk =   0.0078125
        k(  248) = (  -0.5000000   0.1443376  -0.0000000), wk =   0.0078125
        k(  249) = (  -0.5000000   0.1443376   0.0840933), wk =   0.0078125
        k(  250) = (  -0.5000000   0.1443376   0.1681867), wk =   0.0078125
        k(  251) = (  -0.5000000   0.1443376   0.2522801), wk =   0.0078125
        k(  252) = (  -0.5000000   0.1443376  -0.3363735), wk =   0.0078125
        k(  253) = (  -0.5000000   0.1443376  -0.2522801), wk =   0.0078125
        k(  254) = (  -0.5000000   0.1443376  -0.1681867), wk =   0.0078125
        k(  255) = (  -0.5000000   0.1443376  -0.0840934), wk =   0.0078125
        k(  256) = (  -0.5000000  -0.8660254  -0.0000000), wk =   0.0039062
        k(  257) = (  -0.5000000  -0.8660254   0.0840933), wk =   0.0078125
        k(  258) = (  -0.5000000  -0.8660254   0.1681867), wk =   0.0078125
        k(  259) = (  -0.5000000  -0.8660254   0.2522801), wk =   0.0078125
        k(  260) = (  -0.5000000  -0.8660254  -0.3363735), wk =   0.0039062

                       cryst. coord.
        k(    1) = (   0.0000000   0.0000000   0.0000000), wk =   0.0039062
        k(    2) = (   0.0000000  -0.0000000   0.1250000), wk =   0.0078125
        k(    3) = (   0.0000000  -0.0000000   0.2500000), wk =   0.0078125
        k(    4) = (   0.0000000  -0.0000000   0.3750000), wk =   0.0078125
        k(    5) = (  -0.0000000   0.0000000  -0.5000000), wk =   0.0039062
        k(    6) = (   0.0000000   0.1250000  -0.0000000), wk =   0.0078125
        k(    7) = (  -0.0000000   0.1250000   0.1250000), wk =   0.0078125
        k(    8) = (   0.0000000   0.1250000   0.2500000), wk =   0.0078125
        k(    9) = (  -0.0000000   0.1250000   0.3750000), wk =   0.0078125
        k(   10) = (   0.0000000   0.1250000  -0.5000000), wk =   0.0078125
        k(   11) = (   0.0000000   0.1250000  -0.3750000), wk =   0.0078125
        k(   12) = (  -0.0000000   0.1250000  -0.2500000), wk =   0.0078125
        k(   13) = (  -0.0000000   0.1250000  -0.1250000), wk =   0.0078125
[...]
        k(   24) = (  -0.0000000   0.4330593   0.1681714), wk =   0.0078125
        k(   25) = (  -0.0000001   0.4330593   0.2522571), wk =   0.0078125
        k(   26) = (   0.0000000   0.4330593  -0.3363427), wk =   0.0078125
        k(   27) = (  -0.0000000   0.4330593  -0.2522570), wk =   0.0078125
        k(   28) = (  -0.0000000   0.4330593  -0.1681713), wk =   0.0078125
        k(   29) = (  -0.0000000   0.4330593  -0.0840856), wk =   0.0078125
        k(   30) = (   0.0000000  -0.5774124  -0.0000000), wk =   0.0039062
        k(   31) = (   0.0000000  -0.5774124   0.0840856), wk =   0.0078125
        k(   32) = (   0.0000000  -0.5774124   0.1681713), wk =   0.0078125
        k(   33) = (   0.0000000  -0.5774124   0.2522570), wk =   0.0078125
        k(   34) = (   0.0000001  -0.5774124  -0.3363427), wk =   0.0039062
        k(   35) = (   0.1250134   0.0721765  -0.0000000), wk =   0.0078125
        k(   36) = (   0.1250134   0.0721765   0.0840857), wk =   0.0078125
        k(   37) = (   0.1250134   0.0721765   0.1681713), wk =   0.0078125
        k(   38) = (   0.1250134   0.0721766   0.2522570), wk =   0.0078125
        k(   39) = (   0.1250135   0.0721765  -0.3363427), wk =   0.0078125
        k(   40) = (   0.1250135   0.0721765  -0.2522570), wk =   0.0078125
        k(   41) = (   0.1250134   0.0721765  -0.1681714), wk =   0.0078125
        k(   42) = (   0.1250134   0.0721765  -0.0840857), wk =   0.0078125
        k(   43) = (   0.1250134   0.2165296   0.0000000), wk =   0.0078125
        k(   44) = (   0.1250134   0.2165296   0.0840857), wk =   0.0078125
        k(   45) = (   0.1250134   0.2165296   0.1681714), wk =   0.0078125
        k(   46) = (   0.1250134   0.2165297   0.2522570), wk =   0.0078125
        k(   47) = (   0.1250135   0.2165296  -0.3363427), wk =   0.0078125
        k(   48) = (   0.1250134   0.2165296  -0.2522570), wk =   0.0078125
        k(   49) = (   0.1250134   0.2165296  -0.1681713), wk =   0.0078125
        k(   50) = (   0.1250134   0.2165296  -0.0840857), wk =   0.0078125
        k(   51) = (   0.1250134   0.3608827   0.0000000), wk =   0.0078125
        k(   52) = (   0.1250134   0.3608827   0.0840857), wk =   0.0078125
        k(   53) = (   0.1250134   0.3608827   0.1681714), wk =   0.0078125
        k(   54) = (   0.1250134   0.3608827   0.2522570), wk =   0.0078125
        k(   55) = (   0.1250134   0.3608827  -0.3363427), wk =   0.0078125
        k(   56) = (   0.1250134   0.3608827  -0.2522570), wk =   0.0078125
        k(   57) = (   0.1250134   0.3608827  -0.1681713), wk =   0.0078125
        k(   58) = (   0.1250134   0.3608827  -0.0840857), wk =   0.0078125
        k(   59) = (   0.1250134   0.5052358   0.0000000), wk =   0.0078125
        k(   60) = (   0.1250134   0.5052358   0.0840857), wk =   0.0078125
[...]
        k(  246) = (  -0.5000537   0.0000000  -0.1681713), wk =   0.0078125
        k(  247) = (  -0.5000537   0.0000000  -0.0840856), wk =   0.0078125
        k(  248) = (  -0.5000538   0.1443531   0.0000001), wk =   0.0078125
        k(  249) = (  -0.5000538   0.1443531   0.0840857), wk =   0.0078125
        k(  250) = (  -0.5000538   0.1443532   0.1681714), wk =   0.0078125
        k(  251) = (  -0.5000538   0.1443532   0.2522571), wk =   0.0078125
        k(  252) = (  -0.5000537   0.1443531  -0.3363426), wk =   0.0078125
        k(  253) = (  -0.5000537   0.1443531  -0.2522570), wk =   0.0078125
        k(  254) = (  -0.5000537   0.1443531  -0.1681713), wk =   0.0078125
        k(  255) = (  -0.5000537   0.1443531  -0.0840856), wk =   0.0078125
        k(  256) = (  -0.5000537  -0.8661185  -0.0000000), wk =   0.0039062
        k(  257) = (  -0.5000537  -0.8661185   0.0840857), wk =   0.0078125
        k(  258) = (  -0.5000537  -0.8661185   0.1681713), wk =   0.0078125
        k(  259) = (  -0.5000537  -0.8661185   0.2522570), wk =   0.0078125
        k(  260) = (  -0.5000537  -0.8661185  -0.3363427), wk =   0.0039062

                       cryst. coord.
        k(    1) = (   0.0000000   0.0000000   0.0000000), wk =   0.0039062
        k(    2) = (  -0.0000000   0.0000000   0.1250000), wk =   0.0078125
        k(    3) = (  -0.0000000   0.0000000   0.2500000), wk =   0.0078125
        k(    4) = (  -0.0000000   0.0000000   0.3750000), wk =   0.0078125
        k(    5) = (   0.0000000  -0.0000000  -0.5000000), wk =   0.0039062
        k(    6) = (  -0.0000000   0.1250000  -0.0000000), wk =   0.0078125
        k(    7) = (  -0.0000000   0.1250000   0.1250000), wk =   0.0078125
        k(    8) = (  -0.0000000   0.1250000   0.2500000), wk =   0.0078125
        k(    9) = (  -0.0000000   0.1250000   0.3750000), wk =   0.0078125
        k(   10) = (   0.0000000   0.1250000  -0.5000000), wk =   0.0078125
        k(   11) = (   0.0000000   0.1250000  -0.3750000), wk =   0.0078125
        k(   12) = (  -0.0000000   0.1250000  -0.2500000), wk =   0.0078125
        k(   13) = (   0.0000000   0.1250000  -0.1250000), wk =   0.0078125
        k(   14) = (  -0.0000000   0.2500000  -0.0000000), wk =   0.0078125
        k(   15) = (   0.0000000   0.2500000   0.1250000), wk =   0.0078125
        k(   16) = (  -0.0000000   0.2500000   0.2500000), wk =   0.0078125
        k(   17) = (  -0.0000000   0.2500000   0.3750000), wk =   0.0078125
        k(   18) = (  -0.0000000   0.2500000  -0.5000000), wk =   0.0078125
        k(   19) = (   0.0000000   0.2500000  -0.3750000), wk =   0.0078125
        k(   20) = (   0.0000000   0.2500000  -0.2500000), wk =   0.0078125
        k(   21) = (   0.0000000   0.2500000  -0.1250000), wk =   0.0078125
        k(   22) = (   0.0000000   0.3750000   0.0000000), wk =   0.0078125
        k(   23) = (   0.0000000   0.3750000   0.1250000), wk =   0.0078125
        k(   24) = (   0.0000000   0.3750000   0.2500000), wk =   0.0078125
        k(   25) = (   0.0000000   0.3750000   0.3750000), wk =   0.0078125
        k(   26) = (   0.0000000   0.3750000  -0.5000000), wk =   0.0078125
        k(   27) = (   0.0000000   0.3750000  -0.3750000), wk =   0.0078125
        k(   28) = (   0.0000000   0.3750000  -0.2500000), wk =   0.0078125
        k(   29) = (  -0.0000000   0.3750000  -0.1250000), wk =   0.0078125
        k(   30) = (   0.0000000  -0.5000000   0.0000000), wk =   0.0039062
        k(   31) = (  -0.0000000  -0.5000000   0.1250000), wk =   0.0078125
        k(   32) = (  -0.0000000  -0.5000000   0.2500000), wk =   0.0078125
        k(   33) = (  -0.0000000  -0.5000000   0.3750000), wk =   0.0078125
        k(   34) = (   0.0000000  -0.5000000  -0.5000000), wk =   0.0039062
        k(   35) = (   0.1250000   0.0000000  -0.0000000), wk =   0.0078125
        k(   36) = (   0.1250000   0.0000000   0.1250000), wk =   0.0078125
        k(   37) = (   0.1250000   0.0000000   0.2500000), wk =   0.0078125
        k(   38) = (   0.1250000   0.0000000   0.3750000), wk =   0.0078125
        k(   39) = (   0.1250000   0.0000000  -0.5000000), wk =   0.0078125
        k(   40) = (   0.1250000   0.0000000  -0.3750000), wk =   0.0078125
        k(   41) = (   0.1250000   0.0000000  -0.2500000), wk =   0.0078125
        k(   42) = (   0.1250000   0.0000000  -0.1250000), wk =   0.0078125
        k(   43) = (   0.1250000   0.1250000  -0.0000000), wk =   0.0078125
        k(   44) = (   0.1250000   0.1250000   0.1250000), wk =   0.0078125
        k(   45) = (   0.1250000   0.1250000   0.2500000), wk =   0.0078125
        k(   46) = (   0.1250000   0.1250000   0.3750000), wk =   0.0078125
        k(   47) = (   0.1250000   0.1250000  -0.5000000), wk =   0.0078125
        k(   48) = (   0.1250000   0.1250000  -0.3750000), wk =   0.0078125
        k(   49) = (   0.1250000   0.1250000  -0.2500000), wk =   0.0078125
        k(   50) = (   0.1250000   0.1250000  -0.1250000), wk =   0.0078125
        k(   51) = (   0.1250000   0.2500000  -0.0000000), wk =   0.0078125
        k(   52) = (   0.1250000   0.2500000   0.1250000), wk =   0.0078125
        k(   53) = (   0.1250000   0.2500000   0.2500000), wk =   0.0078125
        k(   54) = (   0.1250000   0.2500000   0.3750000), wk =   0.0078125
        k(   55) = (   0.1250000   0.2500000  -0.5000000), wk =   0.0078125
        k(   56) = (   0.1250000   0.2500000  -0.3750000), wk =   0.0078125
        k(   57) = (   0.1250000   0.2500000  -0.2500000), wk =   0.0078125
        k(   58) = (   0.1250000   0.2500000  -0.1250000), wk =   0.0078125
        k(   59) = (   0.1250000   0.3750000  -0.0000000), wk =   0.0078125
        k(   60) = (   0.1250000   0.3750000   0.1250000), wk =   0.0078125
[...]
        k(  246) = (  -0.5000000   0.2500000  -0.2500000), wk =   0.0078125
        k(  247) = (  -0.5000000   0.2500000  -0.1250000), wk =   0.0078125
        k(  248) = (  -0.5000000   0.3750000   0.0000000), wk =   0.0078125
        k(  249) = (  -0.5000000   0.3750000   0.1250000), wk =   0.0078125
        k(  250) = (  -0.5000000   0.3750000   0.2500000), wk =   0.0078125
        k(  251) = (  -0.5000000   0.3750000   0.3750000), wk =   0.0078125
        k(  252) = (  -0.5000000   0.3750000  -0.5000000), wk =   0.0078125
        k(  253) = (  -0.5000000   0.3750000  -0.3750000), wk =   0.0078125
        k(  254) = (  -0.5000000   0.3750000  -0.2500000), wk =   0.0078125
        k(  255) = (  -0.5000000   0.3750000  -0.1250000), wk =   0.0078125
        k(  256) = (  -0.5000000  -0.5000000   0.0000000), wk =   0.0039062
        k(  257) = (  -0.5000000  -0.5000000   0.1250000), wk =   0.0078125
        k(  258) = (  -0.5000000  -0.5000000   0.2500000), wk =   0.0078125
        k(  259) = (  -0.5000000  -0.5000000   0.3750000), wk =   0.0078125
        k(  260) = (  -0.5000000  -0.5000000  -0.5000000), wk =   0.0039062

     Check: negative core charge=   -0.000003

     Initial potential from superposition of free atoms

     starting charge   51.99974, renormalised to   52.00000
     Starting wfcs are   34 randomized atomic wfcs

     Self-consistent Calculation

[...]

     total energy              =    -987.07340809 Ry
     Harris-Foulkes estimate   =    -987.07340710 Ry
     estimated scf accuracy    <       0.00000223 Ry

     iteration #  7     ecut=    80.00 Ry     beta= 0.50
     Davidson diagonalization with overlap
     ethr =  4.29E-09,  avg # of iterations =  2.0

     End of self-consistent calculation

[...]

          k = 0.3750 0.0722-0.0841 (  3820 PWs)   bands (ev):

[...]

          k =-0.5001-0.8661-0.3363 (  3796 PWs)   bands (ev):

  -114.2083-114.2083 -68.5948 -68.5948 -68.5544 -68.5544 -68.5531 -68.5531
    -8.2549  -8.2549   2.6549   2.6549   3.6480   3.6480   3.6482   3.6482
     4.4950   4.4950   4.6165   4.6165   5.1500   5.1500   7.1279   7.1279
     7.9438   7.9438

     occupation numbers
     1.0000   1.0000   1.0000   1.0000   1.0000   1.0000   1.0000   1.0000
     1.0000   1.0000   1.0000   1.0000   1.0000   1.0000   1.0000   1.0000
     1.0000   1.0000   1.0000   1.0000   1.0000   1.0000   1.0000   1.0000
     1.0000   1.0000

     highest occupied level (ev):     8.8961

!    total energy              =    -987.07340828 Ry
     Harris-Foulkes estimate   =    -987.07340828 Ry
     estimated scf accuracy    <       0.00000001 Ry

     The total energy is the sum of the following terms:

     one-electron contribution =    -800.30836824 Ry
     hartree contribution      =     421.83004036 Ry
     xc contribution           =     -98.08405177 Ry
     ewald contribution        =    -510.51102862 Ry

     convergence has been achieved in   7 iterations

     Forces acting on atoms (cartesian axes, Ry/au):

     atom    1 type  2   force =    -0.00000011    0.00000068   -0.01309307
     atom    2 type  2   force =    -0.00000022    0.00000042   -0.01309268
     atom    3 type  1   force =     0.00000016   -0.00000013    0.01309337
     atom    4 type  1   force =     0.00000017   -0.00000097    0.01309238
     The non-local contrib.  to forces
     atom    1 type  2   force =     0.00000071   -0.00000323   -0.03309370
     atom    2 type  2   force =     0.00000027    0.00000033   -0.03309269
     atom    3 type  1   force =     0.00000092   -0.00000432   -0.09841295
     atom    4 type  1   force =     0.00000147   -0.00000304   -0.09841496
     The ionic contribution  to forces
     atom    1 type  2   force =    -0.00001189    0.00004338    0.53797864
     atom    2 type  2   force =    -0.00000421    0.00000514    0.53798029
     atom    3 type  1   force =     0.00000467   -0.00001742   -0.53797549
     atom    4 type  1   force =     0.00001143   -0.00003109   -0.53798344
     The local contribution  to forces
     atom    1 type  2   force =     0.00001119   -0.00003953   -0.51829015
     atom    2 type  2   force =     0.00000376   -0.00000488   -0.51829314
     atom    3 type  1   force =    -0.00000545    0.00002147    0.64968775
     atom    4 type  1   force =    -0.00001275    0.00003320    0.64969885
     The core correction contribution to forces
     atom    1 type  2   force =     0.00000000    0.00000002    0.00017596
     atom    2 type  2   force =     0.00000000   -0.00000001    0.00017595
     atom    3 type  1   force =     0.00000000    0.00000000    0.00000000
     atom    4 type  1   force =     0.00000000    0.00000000    0.00000000
     The Hubbard contrib.    to forces
     atom    1 type  2   force =     0.00000000    0.00000000    0.00000000
     atom    2 type  2   force =     0.00000000    0.00000000    0.00000000
     atom    3 type  1   force =     0.00000000    0.00000000    0.00000000
     atom    4 type  1   force =     0.00000000    0.00000000    0.00000000
     The SCF correction term to forces
     atom    1 type  2   force =     0.00000000    0.00000000    0.00000000
     atom    2 type  2   force =     0.00000000    0.00000000    0.00000000
     atom    3 type  1   force =     0.00000000    0.00000000    0.00000000
     atom    4 type  1   force =     0.00000000    0.00000000    0.00000000

     Total force =     0.000000     Total SCF correction =     0.000000

     Computing stress (Cartesian axis) and pressure

          total   stress  (Ry/bohr**3)                   (kbar)     P=    0.86
   0.00000406  -0.00000000  -0.00000001          0.60     -0.00     -0.00
  -0.00000000   0.00000406   0.00000001         -0.00      0.60      0.00
  -0.00000001   0.00000001   0.00000934         -0.00      0.00      1.37

     kinetic stress (kbar)  34115.06     -0.00     -0.00
                               -0.00  34115.06      0.00
                               -0.00      0.00  34446.43

     local   stress (kbar)  -4059.06     -0.04     -0.04
                               -0.04  -4059.22      0.07
                               -0.04      0.07  -4488.72

     nonloc. stress (kbar)  -1663.75      0.00      0.00
                                0.00  -1663.75     -0.00
                                0.00     -0.00  -1798.01

     hartree stress (kbar)  65093.88      0.02      0.01
                                0.02  65093.95     -0.03
                                0.01     -0.03  66327.85

     exc-cor stress (kbar) -14289.39      0.00      0.00
                                0.00 -14289.39     -0.00
                                0.00     -0.00 -14294.74

     corecor stress (kbar)   -251.32      0.00      0.00
                                0.00   -251.32     -0.00
                                0.00     -0.00   -251.96

     ewald   stress (kbar) -78944.81      0.02      0.02
                                0.02 -78944.72     -0.04
                                0.02     -0.04 -79939.46

     hubbard stress (kbar)      0.00      0.00      0.00
                                0.00      0.00      0.00
                                0.00      0.00      0.00

     london  stress (kbar)      0.00      0.00      0.00
                                0.00      0.00      0.00
                                0.00      0.00      0.00

     DFT-D3  stress (kbar)      0.00      0.00      0.00
                                0.00      0.00      0.00
                                0.00      0.00      0.00

     XDM     stress (kbar)      0.00      0.00      0.00
                                0.00      0.00      0.00
                                0.00      0.00      0.00

     dft-nl  stress (kbar)      0.00      0.00      0.00
                                0.00      0.00      0.00
                                0.00      0.00      0.00

     TS-vdW  stress (kbar)      0.00      0.00      0.00
                                0.00      0.00      0.00
                                0.00      0.00      0.00

     Writing output data file ZnO.save/

     General routines

     Parallel routines

   This run was terminated on:  15: 3:15  16Jun2022

   JOB DONE.