     Program PWSCF v.6.4.1 starts on  8Nov2021 at 21:43:54

     K-points division:     npool     =       8
     R & G space division:  proc/nbgrp/npool/nimage =      16
     Waiting for input...
     Reading input from standard input
Warning: card &IONS ignored
Warning: card   UPSCALE           = 100.D0, ignored
Warning: card / ignored
Warning: card &CELL ignored
Warning: card   CELL_DYNAMICS     = 'BFGS' ignored
Warning: card   PRESS_CONV_THR    = 0.5D0 ignored
Warning: card   CELL_DOFREE = 'Z' ignored
Warning: card / ignored

     Current dimensions of program PWSCF are:
     Max number of different atomic species (ntypx) = 10
     Max number of k-points (npk) =  40000
     Max angular momentum in pseudopotentials (lmaxx) =  3

     bravais-lattice index     =            0
     lattice parameter (alat)  =      18.4446  a.u.
     unit-cell volume          =    5160.7272 (a.u.)^3
     number of atoms/cell      =           72
     number of atomic types    =            3
     number of electrons       =       776.00
     number of Kohn-Sham states=          466
     kinetic-energy cutoff     =      60.0000  Ry
     charge density cutoff     =     500.0000  Ry
     convergence threshold     =      1.0E-08
     mixing beta               =       0.5000
     number of iterations used =            8  plain     mixing
     Exchange-correlation      = SLA  PW   PSX  PSC ( 1  4 10  8 0 0)

     celldm(1)=  18.444649  celldm(2)=   0.000000  celldm(3)=   0.000000
     celldm(4)=   0.000000  celldm(5)=   0.000000  celldm(6)=   0.000000

     crystal axes: (cart. coord. in units of alat)
               a(1) = (   1.000000  -0.000668   0.000517 )
               a(2) = (  -0.500577   0.867025  -0.000205 )
               a(3) = (   0.000697   0.000083   0.948934 )

     reciprocal axes: (cart. coord. in units 2 pi/alat)
               b(1) = (  1.000387  0.577573 -0.000785 )
               b(2) = (  0.000771  1.153815 -0.000101 )
               b(3) = ( -0.000545 -0.000066  1.053814 )

     PseudoPot. # 1 for Zn read from file:
     ./GBRV_PBEsol/zn_pbesol_v1.uspp.F.UPF
     MD5 check sum: 7d8615e52efe7c1e2b1899de8658bae2
     Pseudo is Ultrasoft, Zval = 20.0
     Generated by new atomic code, or converted to UPF format
     Using radial grid of  943 points,  6 beta functions with:
                l(1) =   0
                l(2) =   0
                l(3) =   1
                l(4) =   1
                l(5) =   2
                l(6) =   2
     Q(r) pseudized with  8 coefficients,  rinner =    1.100   1.100   1.100
                                                       1.100   1.100

     PseudoPot. # 2 for O  read from file:
     ./GBRV_PBEsol/o_pbesol_v1.2.uspp.F.UPF
     MD5 check sum: 501638753501ef6325af9037351f7734
     Pseudo is Ultrasoft + core correction, Zval =  6.0
     Generated by new atomic code, or converted to UPF format
     Using radial grid of  737 points,  5 beta functions with:
                l(1) =   0
                l(2) =   0
                l(3) =   1
                l(4) =   1
                l(5) =   2
     Q(r) pseudized with  8 coefficients,  rinner =    0.900   0.900   0.900
                                                       0.900   0.900

     PseudoPot. # 3 for Mg read from file:
     ./GBRV_PBEsol/mg_pbesol_v1.4.uspp.F.UPF
     MD5 check sum: 4059f37963cf5867752dbf5ab2400678
     Pseudo is Ultrasoft, Zval = 10.0
     Generated by new atomic code, or converted to UPF format
     Using radial grid of  821 points,  7 beta functions with:
                l(1) =   0
                l(2) =   0
                l(3) =   0
                l(4) =   1
                l(5) =   1
                l(6) =   2
                l(7) =   2
     Q(r) pseudized with  8 coefficients,  rinner =    1.200   1.200   1.200
                                                       1.200   1.200

     atomic species   valence    mass     pseudopotential
        Zn            20.00    65.38000     Zn( 1.00)
        O              6.00    15.99900     O ( 1.00)
        Mg            10.00    24.30500     Mg( 1.00)

     No symmetry found

                                    s                        frac. trans.

      isym =  1     identity

 cryst.   s( 1) = (     1          0          0      )
                  (     0          1          0      )
                  (     0          0          1      )

 cart.    s( 1) = (  1.0000000 -0.0000000 -0.0000000 )
                  ( -0.0000000  1.0000000 -0.0000000 )
                  (  0.0000000 -0.0000000  1.0000000 )

   Cartesian axes

     site n.     atom                  positions (alat units)
         1           Mg  tau(   1) = (  -0.1661331   0.6767929   0.2374113  )
         2           Mg  tau(   2) = (   0.0040698   0.3829818   0.2390021  )
         3           Mg  tau(   3) = (   0.8333875   0.0944291   0.2395295  )
         4           Mg  tau(   4) = (   0.1640087   0.6752914   0.2404923  )
         5           Mg  tau(   5) = (   0.4978872   0.6725479   0.2409855  )
         6           Mg  tau(   6) = (   0.4984939   0.0994245   0.2433045  )
         7           Mg  tau(   7) = (  -0.1633665   0.4822091   0.4752355  )
         8           Mg  tau(   8) = (   0.3313805   0.7686585   0.4780389  )
         9           Mg  tau(   9) = (  -0.3345415   0.7693034   0.4782586  )
        10           Mg  tau(  10) = (   0.0008155   0.1919105   0.4788928  )
        11           Mg  tau(  11) = (  -0.1649331   0.6768169   0.7146827  )
        12           Mg  tau(  12) = (   0.3332419   0.3846562   0.7153187  )
        13           Mg  tau(  13) = (   0.3328383   0.7694293   0.0007589  )
        14           Mg  tau(  14) = (  -0.1637415   0.4812058   0.0008003  )
        15           Mg  tau(  15) = (   0.6674553   0.1942089   0.0039846  )
        16           Mg  tau(  16) = (   0.5026876   0.4786315   0.0056551  )
        17           O   tau(  17) = (   0.3339715   0.3850576   0.0007341  )
        18           O   tau(  18) = (   0.6702675   0.3858060   0.0012252  )
        19           O   tau(  19) = (  -0.1667513   0.6742113   0.0012776  )
        20           O   tau(  20) = (   0.1646555   0.0931486   0.0030642  )
        21           O   tau(  21) = (   0.1646918   0.6753661   0.0036845  )
        22           O   tau(  22) = (   0.8319791   0.0941834   0.0040643  )
        23           O   tau(  23) = (   0.0017071   0.3832813   0.0039074  )
        24           O   tau(  24) = (   0.4973309   0.6710778   0.0045683  )
        25           O   tau(  25) = (   0.4994045   0.1004214   0.0056305  )
        26           O   tau(  26) = (   0.5020169   0.4790624   0.2372487  )
        27           O   tau(  27) = (   0.6673529   0.1923871   0.2378129  )
        28           O   tau(  28) = (  -0.0009697   0.7739894   0.2380550  )
        29           O   tau(  29) = (  -0.1613932   0.4837323   0.2389223  )
        30           O   tau(  30) = (   0.1678442   0.4832264   0.2392075  )
        31           O   tau(  31) = (   0.3301359   0.1927808   0.2405473  )
        32           O   tau(  32) = (   0.3317409   0.7691665   0.2409051  )
        33           O   tau(  33) = (  -0.3346692   0.7678221   0.2416686  )
        34           O   tau(  34) = (  -0.0008417   0.1915874   0.2430528  )
        35           O   tau(  35) = (   0.4982135   0.6724514   0.4739421  )
        36           O   tau(  36) = (   0.8338790   0.0942013   0.4747322  )
        37           O   tau(  37) = (   0.4998224   0.0994763   0.4752705  )
        38           O   tau(  38) = (   0.0011834   0.3838069   0.4753154  )
        39           O   tau(  39) = (   0.1636917   0.6750351   0.4759498  )
        40           O   tau(  40) = (   0.6698652   0.3858250   0.4765329  )
        41           O   tau(  41) = (  -0.1674744   0.6742260   0.4777747  )
        42           O   tau(  42) = (   0.1655898   0.0937858   0.4784741  )
        43           O   tau(  43) = (   0.3339251   0.3858160   0.4790760  )
        44           O   tau(  44) = (   0.3326146   0.7687845   0.7121254  )
        45           O   tau(  45) = (  -0.0003609   0.1917675   0.7128119  )
        46           O   tau(  46) = (  -0.3345906   0.7677636   0.7126850  )
        47           O   tau(  47) = (  -0.1626163   0.4840200   0.7135582  )
        48           O   tau(  48) = (   0.1678919   0.4827682   0.7142903  )
        49           O   tau(  49) = (   0.3312268   0.1925237   0.7147563  )
        50           O   tau(  50) = (  -0.0003542   0.7749955   0.7147745  )
        51           O   tau(  51) = (   0.6675227   0.1934703   0.7154789  )
        52           O   tau(  52) = (   0.5010067   0.4786421   0.7164842  )
        53           Zn  tau(  53) = (   0.6716943   0.3851021   0.2373298  )
        54           Zn  tau(  54) = (   0.3328143   0.3850775   0.2382029  )
        55           Zn  tau(  55) = (   0.1645839   0.0933597   0.2418838  )
        56           Zn  tau(  56) = (   0.5023136   0.4795130   0.4739294  )
        57           Zn  tau(  57) = (  -0.0023164   0.7730354   0.4743417  )
        58           Zn  tau(  58) = (   0.6688615   0.1935358   0.4753629  )
        59           Zn  tau(  59) = (   0.1664653   0.4822768   0.4759388  )
        60           Zn  tau(  60) = (   0.3295471   0.1926871   0.4763484  )
        61           Zn  tau(  61) = (   0.8324936   0.0950739   0.7123409  )
        62           Zn  tau(  62) = (   0.4991744   0.6702056   0.7131009  )
        63           Zn  tau(  63) = (   0.0028672   0.3846190   0.7128332  )
        64           Zn  tau(  64) = (   0.4991345   0.0998077   0.7138798  )
        65           Zn  tau(  65) = (   0.1624269   0.6745567   0.7143020  )
        66           Zn  tau(  66) = (   0.6700948   0.3868102   0.7149394  )
        67           Zn  tau(  67) = (   0.1665900   0.0935322   0.7162886  )
        68           Zn  tau(  68) = (  -0.3362440   0.7674732   0.0011969  )
        69           Zn  tau(  69) = (  -0.0014608   0.1908246   0.0029839  )
        70           Zn  tau(  70) = (   0.1673577   0.4823098   0.0036706  )
        71           Zn  tau(  71) = (   0.3298192   0.1919581   0.0040683  )
        72           Zn  tau(  72) = (  -0.0011232   0.7751602   0.0043166  )

   Crystallographic axes

     site n.     atom                  positions (cryst. coord.)
         1           Mg  tau(   1) = (  0.2245138  0.7807414  0.2502334  )
         2           Mg  tau(   2) = (  0.2250839  0.4418690  0.2518364  )
         3           Mg  tau(   3) = (  0.8880615  0.1095722  0.2519592  )
         4           Mg  tau(   4) = (  0.5539136  0.7792632  0.2533003  )
         5           Mg  tau(   5) = (  0.8863364  0.7763552  0.2536384  )
         6           Mg  tau(   6) = (  0.5559206  0.1150773  0.2561196  )
         7           Mg  tau(   7) = (  0.1147083  0.5562059  0.5008673  )
         8           Mg  tau(   8) = (  0.7750901  0.8870966  0.5035330  )
         9           Mg  tau(   9) = (  0.1092828  0.8873272  0.5041274  )
        10           Mg  tau(  10) = (  0.1112822  0.2213814  0.5046511  )
        11           Mg  tau(  11) = (  0.2253534  0.7807218  0.7531883  )
[...]
     atom   36 type  2   force =     0.00187063   -0.00111225   -0.00004986
     atom   37 type  2   force =    -0.00005120    0.00019311    0.00039348
     atom   38 type  2   force =    -0.00177909   -0.00112052    0.00013072
     atom   39 type  2   force =     0.00175698    0.00106118    0.00029651
     atom   40 type  2   force =     0.00194084    0.00109866   -0.00003058
     atom   41 type  2   force =    -0.00186379   -0.00111885   -0.00003076
     atom   42 type  2   force =    -0.00183231   -0.00113404   -0.00000245
     atom   43 type  2   force =     0.00000981    0.00001545   -0.00022429
     atom   44 type  2   force =    -0.00009700   -0.00012560   -0.00009653
     atom   45 type  2   force =     0.00008969   -0.00006254    0.00035586
     atom   46 type  2   force =     0.00185484   -0.00107110    0.00022829
     atom   47 type  2   force =     0.00006381    0.00223017   -0.00008110
     atom   48 type  2   force =     0.00202824   -0.00103973    0.00000542
     atom   49 type  2   force =    -0.00015613    0.00220467   -0.00001441
     atom   50 type  2   force =    -0.00188542   -0.00088998    0.00000470
     atom   51 type  2   force =    -0.00006903    0.00014999   -0.00021841
     atom   52 type  2   force =    -0.00190059   -0.00136611   -0.00021143
     atom   53 type  1   force =     0.00000000    0.00000000    0.00000000
     atom   54 type  1   force =     0.00000000    0.00000000    0.00000000
     atom   55 type  1   force =     0.00000000    0.00000000    0.00000000
     atom   56 type  1   force =     0.00000000    0.00000000    0.00000000
     atom   57 type  1   force =     0.00000000    0.00000000    0.00000000
     atom   58 type  1   force =     0.00000000    0.00000000    0.00000000
     atom   59 type  1   force =     0.00000000    0.00000000    0.00000000
     atom   60 type  1   force =     0.00000000    0.00000000    0.00000000
     atom   61 type  1   force =     0.00000000    0.00000000    0.00000000
     atom   62 type  1   force =     0.00000000    0.00000000    0.00000000
     atom   63 type  1   force =     0.00000000    0.00000000    0.00000000
     atom   64 type  1   force =     0.00000000    0.00000000    0.00000000
     atom   65 type  1   force =     0.00000000    0.00000000    0.00000000
     atom   66 type  1   force =     0.00000000    0.00000000    0.00000000
     atom   67 type  1   force =     0.00000000    0.00000000    0.00000000
     atom   68 type  1   force =     0.00000000    0.00000000    0.00000000
     atom   69 type  1   force =     0.00000000    0.00000000    0.00000000
     atom   70 type  1   force =     0.00000000    0.00000000    0.00000000
     atom   71 type  1   force =     0.00000000    0.00000000    0.00000000
     atom   72 type  1   force =     0.00000000    0.00000000    0.00000000
     The Hubbard contrib.    to forces
     atom    1 type  3   force =     0.00000000    0.00000000    0.00000000
     atom    2 type  3   force =     0.00000000    0.00000000    0.00000000
     atom    3 type  3   force =     0.00000000    0.00000000    0.00000000
     atom    4 type  3   force =     0.00000000    0.00000000    0.00000000
     atom    5 type  3   force =     0.00000000    0.00000000    0.00000000
     atom    6 type  3   force =     0.00000000    0.00000000    0.00000000
     atom    7 type  3   force =     0.00000000    0.00000000    0.00000000
     atom    8 type  3   force =     0.00000000    0.00000000    0.00000000
     atom    9 type  3   force =     0.00000000    0.00000000    0.00000000
     atom   10 type  3   force =     0.00000000    0.00000000    0.00000000
     atom   11 type  3   force =     0.00000000    0.00000000    0.00000000
     atom   12 type  3   force =     0.00000000    0.00000000    0.00000000
     atom   13 type  3   force =     0.00000000    0.00000000    0.00000000
     atom   14 type  3   force =     0.00000000    0.00000000    0.00000000
     atom   15 type  3   force =     0.00000000    0.00000000    0.00000000
     atom   16 type  3   force =     0.00000000    0.00000000    0.00000000
     atom   17 type  2   force =     0.00000000    0.00000000    0.00000000
     atom   18 type  2   force =     0.00000000    0.00000000    0.00000000
     atom   19 type  2   force =     0.00000000    0.00000000    0.00000000
     atom   20 type  2   force =     0.00000000    0.00000000    0.00000000
     atom   21 type  2   force =     0.00000000    0.00000000    0.00000000
     atom   22 type  2   force =     0.00000000    0.00000000    0.00000000
     atom   23 type  2   force =     0.00000000    0.00000000    0.00000000
     atom   24 type  2   force =     0.00000000    0.00000000    0.00000000
     atom   25 type  2   force =     0.00000000    0.00000000    0.00000000
     atom   26 type  2   force =     0.00000000    0.00000000    0.00000000
     atom   27 type  2   force =     0.00000000    0.00000000    0.00000000
     atom   28 type  2   force =     0.00000000    0.00000000    0.00000000
     atom   29 type  2   force =     0.00000000    0.00000000    0.00000000
     atom   30 type  2   force =     0.00000000    0.00000000    0.00000000
     atom   31 type  2   force =     0.00000000    0.00000000    0.00000000
     atom   32 type  2   force =     0.00000000    0.00000000    0.00000000
     atom   33 type  2   force =     0.00000000    0.00000000    0.00000000
     atom   34 type  2   force =     0.00000000    0.00000000    0.00000000
     atom   35 type  2   force =     0.00000000    0.00000000    0.00000000
     atom   36 type  2   force =     0.00000000    0.00000000    0.00000000
     atom   37 type  2   force =     0.00000000    0.00000000    0.00000000
     atom   38 type  2   force =     0.00000000    0.00000000    0.00000000
     atom   39 type  2   force =     0.00000000    0.00000000    0.00000000
     atom   40 type  2   force =     0.00000000    0.00000000    0.00000000
     atom   41 type  2   force =     0.00000000    0.00000000    0.00000000
     atom   42 type  2   force =     0.00000000    0.00000000    0.00000000
     atom   43 type  2   force =     0.00000000    0.00000000    0.00000000
     atom   44 type  2   force =     0.00000000    0.00000000    0.00000000
     atom   45 type  2   force =     0.00000000    0.00000000    0.00000000
     atom   46 type  2   force =     0.00000000    0.00000000    0.00000000
     atom   47 type  2   force =     0.00000000    0.00000000    0.00000000
     atom   48 type  2   force =     0.00000000    0.00000000    0.00000000
     atom   49 type  2   force =     0.00000000    0.00000000    0.00000000
     atom   50 type  2   force =     0.00000000    0.00000000    0.00000000
     atom   51 type  2   force =     0.00000000    0.00000000    0.00000000
     atom   52 type  2   force =     0.00000000    0.00000000    0.00000000
     atom   53 type  1   force =     0.00000000    0.00000000    0.00000000
     atom   54 type  1   force =     0.00000000    0.00000000    0.00000000
     atom   55 type  1   force =     0.00000000    0.00000000    0.00000000
     atom   56 type  1   force =     0.00000000    0.00000000    0.00000000
     atom   57 type  1   force =     0.00000000    0.00000000    0.00000000
     atom   58 type  1   force =     0.00000000    0.00000000    0.00000000
     atom   59 type  1   force =     0.00000000    0.00000000    0.00000000
     atom   60 type  1   force =     0.00000000    0.00000000    0.00000000
     atom   61 type  1   force =     0.00000000    0.00000000    0.00000000
     atom   62 type  1   force =     0.00000000    0.00000000    0.00000000
     atom   63 type  1   force =     0.00000000    0.00000000    0.00000000
     atom   64 type  1   force =     0.00000000    0.00000000    0.00000000
     atom   65 type  1   force =     0.00000000    0.00000000    0.00000000
     atom   66 type  1   force =     0.00000000    0.00000000    0.00000000
     atom   67 type  1   force =     0.00000000    0.00000000    0.00000000
     atom   68 type  1   force =     0.00000000    0.00000000    0.00000000
     atom   69 type  1   force =     0.00000000    0.00000000    0.00000000
     atom   70 type  1   force =     0.00000000    0.00000000    0.00000000
     atom   71 type  1   force =     0.00000000    0.00000000    0.00000000
     atom   72 type  1   force =     0.00000000    0.00000000    0.00000000
     The SCF correction term to forces
     atom    1 type  3   force =    -0.00000984   -0.00002059    0.00000000
     atom    2 type  3   force =    -0.00003161    0.00001687    0.00000000
     atom    3 type  3   force =    -0.00001037    0.00001069    0.00000000
     atom    4 type  3   force =    -0.00002131    0.00000573    0.00000000
     atom    5 type  3   force =     0.00002984   -0.00001731    0.00000000
     atom    6 type  3   force =     0.00000118   -0.00000432    0.00000000
     atom    7 type  3   force =    -0.00001408   -0.00001021    0.00000000
     atom    8 type  3   force =     0.00001666    0.00000348    0.00000000
     atom    9 type  3   force =    -0.00001171   -0.00002639    0.00000000
     atom   10 type  3   force =    -0.00002121    0.00000935    0.00000000
     atom   11 type  3   force =    -0.00001895    0.00000444    0.00000000
     atom   12 type  3   force =     0.00002830    0.00002793    0.00000000
     atom   13 type  3   force =    -0.00002322   -0.00001316    0.00000000
     atom   14 type  3   force =     0.00002086    0.00001773    0.00000000
     atom   15 type  3   force =    -0.00000701   -0.00001459    0.00000000
     atom   16 type  3   force =    -0.00002057   -0.00000601    0.00000000
     atom   17 type  2   force =     0.00000187    0.00000276    0.00000000
     atom   18 type  2   force =     0.00000618    0.00000626    0.00000000
     atom   19 type  2   force =    -0.00000328   -0.00000950    0.00000000
     atom   20 type  2   force =    -0.00000189    0.00000127    0.00000000
     atom   21 type  2   force =     0.00000520   -0.00000065    0.00000000
     atom   22 type  2   force =     0.00000279    0.00000106    0.00000000
     atom   23 type  2   force =    -0.00000686    0.00000149    0.00000000
     atom   24 type  2   force =     0.00000088   -0.00000175    0.00000000
     atom   25 type  2   force =     0.00000071    0.00000269    0.00000000
     atom   26 type  2   force =     0.00000301    0.00000698    0.00000000
     atom   27 type  2   force =    -0.00000443   -0.00000668    0.00000000
     atom   28 type  2   force =    -0.00001083    0.00000038    0.00000000
     atom   29 type  2   force =     0.00001077    0.00001167    0.00000000
     atom   30 type  2   force =    -0.00001148   -0.00000184    0.00000000
     atom   31 type  2   force =     0.00000050   -0.00000709    0.00000000
     atom   32 type  2   force =     0.00000256    0.00000107    0.00000000
     atom   33 type  2   force =     0.00000863   -0.00000826    0.00000000
     atom   34 type  2   force =    -0.00000027    0.00000732    0.00000000
     atom   35 type  2   force =     0.00000425    0.00000261    0.00000000
     atom   36 type  2   force =     0.00000377    0.00000285    0.00000000
     atom   37 type  2   force =    -0.00000174    0.00000419    0.00000000
     atom   38 type  2   force =    -0.00001064    0.00000042    0.00000000
     atom   39 type  2   force =    -0.00000120    0.00000188    0.00000000
     atom   40 type  2   force =     0.00000660    0.00000218    0.00000000
     atom   41 type  2   force =    -0.00000293   -0.00000767    0.00000000
     atom   42 type  2   force =    -0.00000042   -0.00000044    0.00000000
     atom   43 type  2   force =     0.00000459   -0.00000404    0.00000000
     atom   44 type  2   force =     0.00000119   -0.00000347    0.00000000
     atom   45 type  2   force =    -0.00000443    0.00000641    0.00000000
     atom   46 type  2   force =     0.00000900   -0.00001445    0.00000000
     atom   47 type  2   force =     0.00000188    0.00001224    0.00000000
     atom   48 type  2   force =    -0.00000268    0.00000152    0.00000000
     atom   49 type  2   force =    -0.00000113    0.00000347    0.00000000
     atom   50 type  2   force =    -0.00000907   -0.00001255    0.00000000
     atom   51 type  2   force =     0.00000603    0.00000375    0.00000000
     atom   52 type  2   force =    -0.00000076    0.00000346    0.00000000
     atom   53 type  1   force =     0.00001811    0.00004176    0.00000000
     atom   54 type  1   force =     0.00003697   -0.00000288    0.00000000
     atom   55 type  1   force =     0.00002263   -0.00003249    0.00000000
     atom   56 type  1   force =     0.00002097    0.00000120    0.00000000
     atom   57 type  1   force =    -0.00000813    0.00005532    0.00000000
     atom   58 type  1   force =    -0.00004070   -0.00000176    0.00000000
     atom   59 type  1   force =    -0.00000213   -0.00000447    0.00000000
     atom   60 type  1   force =     0.00007510   -0.00000576    0.00000000
     atom   61 type  1   force =    -0.00000036   -0.00002532    0.00000000
     atom   62 type  1   force =    -0.00000583   -0.00001605    0.00000000
     atom   63 type  1   force =    -0.00001539   -0.00001027    0.00000000
     atom   64 type  1   force =     0.00002206   -0.00001176    0.00000000
     atom   65 type  1   force =     0.00001781    0.00001856    0.00000000
     atom   66 type  1   force =    -0.00002846    0.00002364    0.00000000
     atom   67 type  1   force =    -0.00002128   -0.00004482    0.00000000
     atom   68 type  1   force =     0.00002190   -0.00002518    0.00000000
     atom   69 type  1   force =    -0.00000656    0.00001861    0.00000000
     atom   70 type  1   force =     0.00000793    0.00002114    0.00000000
     atom   71 type  1   force =     0.00000119    0.00001901    0.00000000
     atom   72 type  1   force =     0.00000976   -0.00002157    0.00000000

     Total force =     0.000088     Total SCF correction =     0.000194
     SCF correction compared to forces is large: reduce conv_thr to get better values

     Computing stress (Cartesian axis) and pressure

          total   stress  (Ry/bohr**3)                   (kbar)     P=  146.33
   0.00148563  -0.00000292  -0.00000058        218.54     -0.43     -0.09
  -0.00000292   0.00149004  -0.00000008         -0.43    219.19     -0.01
  -0.00000058  -0.00000008   0.00000847         -0.09     -0.01      1.25

     kinetic stress (kbar)  30421.43     -1.81      0.17
                               -1.81  30418.33      0.21
                                0.17      0.21  30696.14

     local   stress (kbar) -12455.32   1964.10  -2412.29
                             1964.10 -14367.43   -131.20
                            -2412.29   -131.20  -2566.20

     nonloc. stress (kbar)   1641.71     -0.41      0.10
                               -0.41   1644.00     -0.08
                                0.10     -0.08   1413.71

     hartree stress (kbar)  50916.16   -955.84   1171.04
                             -955.84  51813.21     63.87
                             1171.04     63.87  48181.89

     exc-cor stress (kbar) -12118.01     -0.02      0.00
                               -0.02 -12117.95     -0.00
                                0.00     -0.00 -12128.96

     corecor stress (kbar)   -277.75      0.01      0.00
                                0.01   -277.75     -0.00
                                0.00     -0.00   -277.94

     ewald   stress (kbar) -57909.68  -1006.46   1240.89
                            -1006.46 -56893.23     67.19
                             1240.89     67.19 -65317.39

     hubbard stress (kbar)      0.00      0.00      0.00
                                0.00      0.00      0.00
                                0.00      0.00      0.00

     london  stress (kbar)      0.00      0.00      0.00
                                0.00      0.00      0.00
                                0.00      0.00      0.00

     DFT-D3  stress (kbar)      0.00      0.00      0.00
                                0.00      0.00      0.00
                                0.00      0.00      0.00

     XDM     stress (kbar)      0.00      0.00      0.00
                                0.00      0.00      0.00
                                0.00      0.00      0.00

     dft-nl  stress (kbar)      0.00      0.00      0.00
                                0.00      0.00      0.00
                                0.00      0.00      0.00

     TS-vdW  stress (kbar)      0.00      0.00      0.00
                                0.00      0.00      0.00
                                0.00      0.00      0.00

     Writing output data file ZnO.save/

     General routines

     Parallel routines

   This run was terminated on:  21:57: 5   8Nov2021

   JOB DONE.