     Program PWSCF v.6.4.1 starts on 15Jun2022 at 23:27: 0

     K-points division:     npool     =       4
     R & G space division:  proc/nbgrp/npool/nimage =      16
     Waiting for input...
     Reading input from standard input
Warning: card &IONS ignored
Warning: card   UPSCALE           = 100.D0, ignored
Warning: card / ignored
Warning: card &CELL ignored
Warning: card   CELL_DYNAMICS     = 'BFGS' ignored
Warning: card   PRESS_CONV_THR    = 0.5D0 ignored
Warning: card   CELL_DOFREE = 'ALL' ignored
Warning: card / ignored

     Current dimensions of program PWSCF are:
     Max number of different atomic species (ntypx) = 10
     Max number of k-points (npk) =  40000
     Max angular momentum in pseudopotentials (lmaxx) =  3

     bravais-lattice index     =            0
     lattice parameter (alat)  =       6.4362  a.u.
     unit-cell volume          =     308.2061 (a.u.)^3
     number of atoms/cell      =            4
     number of atomic types    =            3
     number of electrons       =        42.00
     number of Kohn-Sham states=           21
     kinetic-energy cutoff     =      80.0000  Ry
     charge density cutoff     =     600.0000  Ry
     convergence threshold     =      1.0E-06
     mixing beta               =       0.5000
     number of iterations used =            8  plain     mixing
     Exchange-correlation      = SLA  PW   PSX  PSC ( 1  4 10  8 0 0)

     celldm(1)=   6.436244  celldm(2)=   0.000000  celldm(3)=   0.000000
     celldm(4)=   0.000000  celldm(5)=   0.000000  celldm(6)=   0.000000

     crystal axes: (cart. coord. in units of alat)
               a(1) = (   1.000000   0.000000  -0.000000 )
               a(2) = (  -0.500000   0.866026  -0.000000 )
               a(3) = (   0.000000  -0.000000   1.334790 )

     reciprocal axes: (cart. coord. in units 2 pi/alat)
               b(1) = (  1.000000  0.577350 -0.000000 )
               b(2) = ( -0.000000  1.154700  0.000000 )
               b(3) = (  0.000000  0.000000  0.749182 )

     PseudoPot. # 1 for Mg read from file:
     ./GBRV_PBEsol/mg_pbesol_v1.4.uspp.F.UPF
     MD5 check sum: 4059f37963cf5867752dbf5ab2400678
     Pseudo is Ultrasoft, Zval = 10.0
     Generated by new atomic code, or converted to UPF format
     Using radial grid of  821 points,  7 beta functions with:
                l(1) =   0
                l(2) =   0
                l(3) =   0
                l(4) =   1
                l(5) =   1
                l(6) =   2
                l(7) =   2
     Q(r) pseudized with  8 coefficients,  rinner =    1.200   1.200   1.200
                                                       1.200   1.200

     PseudoPot. # 2 for Zn read from file:
     ./GBRV_PBEsol/zn_pbesol_v1.uspp.F.UPF
     MD5 check sum: 7d8615e52efe7c1e2b1899de8658bae2
     Pseudo is Ultrasoft, Zval = 20.0
     Generated by new atomic code, or converted to UPF format
     Using radial grid of  943 points,  6 beta functions with:
                l(1) =   0
                l(2) =   0
                l(3) =   1
                l(4) =   1
                l(5) =   2
                l(6) =   2
     Q(r) pseudized with  8 coefficients,  rinner =    1.100   1.100   1.100
                                                       1.100   1.100

     PseudoPot. # 3 for O  read from file:
     ./GBRV_PBEsol/o_pbesol_v1.2.uspp.F.UPF
     MD5 check sum: 501638753501ef6325af9037351f7734
     Pseudo is Ultrasoft + core correction, Zval =  6.0
     Generated by new atomic code, or converted to UPF format
     Using radial grid of  737 points,  5 beta functions with:
                l(1) =   0
                l(2) =   0
                l(3) =   1
                l(4) =   1
                l(5) =   2
     Q(r) pseudized with  8 coefficients,  rinner =    0.900   0.900   0.900
                                                       0.900   0.900

     atomic species   valence    mass     pseudopotential
        Mg            10.00    24.30500     Mg( 1.00)
        Zn            20.00    65.38000     Zn( 1.00)
        O              6.00    15.99900     O ( 1.00)

     No symmetry found

                                    s                        frac. trans.

      isym =  1     identity

 cryst.   s( 1) = (     1          0          0      )
                  (     0          1          0      )
                  (     0          0          1      )

 cart.    s( 1) = (  1.0000000 -0.0000000 -0.0000000 )
                  ( -0.0000000  1.0000000  0.0000000 )
                  (  0.0000000 -0.0000000  1.0000000 )

   Cartesian axes

     site n.     atom                  positions (alat units)
         1           O   tau(   1) = (   0.5000002   0.2886757   0.0098050  )
         2           O   tau(   2) = (   0.0000002   0.5773498   0.6771996  )
         3           Zn  tau(   3) = (   0.5000001   0.2886750   0.7394652  )
         4           Mg  tau(   4) = (  -0.0000000   0.5773515   1.4112443  )

   Crystallographic axes

     site n.     atom                  positions (cryst. coord.)
         1           O   tau(   1) = (  0.6666670  0.3333337  0.0073459  )
         2           O   tau(   2) = (  0.3333329  0.6666657  0.5073458  )
         3           Zn  tau(   3) = (  0.6666664  0.3333329  0.5539939  )
         4           Mg  tau(   4) = (  0.3333336  0.6666677  1.0572785  )

     number of k points=   260
                       cart. coord. in units 2pi/alat
        k(    1) = (   0.0000000   0.0000000   0.0000000), wk =   0.0039062
        k(    2) = (   0.0000000   0.0000000   0.0936477), wk =   0.0078125
        k(    3) = (   0.0000000   0.0000001   0.1872954), wk =   0.0078125
        k(    4) = (   0.0000000   0.0000001   0.2809431), wk =   0.0078125
        k(    5) = (  -0.0000000  -0.0000002  -0.3745908), wk =   0.0039062
        k(    6) = (  -0.0000000   0.1443375   0.0000000), wk =   0.0078125
        k(    7) = (  -0.0000000   0.1443375   0.0936477), wk =   0.0078125
        k(    8) = (  -0.0000000   0.1443376   0.1872954), wk =   0.0078125
        k(    9) = (   0.0000000   0.1443376   0.2809431), wk =   0.0078125
        k(   10) = (  -0.0000001   0.1443373  -0.3745908), wk =   0.0078125
        k(   11) = (  -0.0000000   0.1443373  -0.2809431), wk =   0.0078125
        k(   12) = (  -0.0000000   0.1443374  -0.1872954), wk =   0.0078125
        k(   13) = (  -0.0000000   0.1443374  -0.0936477), wk =   0.0078125
        k(   14) = (  -0.0000000   0.2886749   0.0000000), wk =   0.0078125
        k(   15) = (  -0.0000000   0.2886750   0.0936477), wk =   0.0078125
        k(   16) = (  -0.0000000   0.2886750   0.1872954), wk =   0.0078125
        k(   17) = (  -0.0000000   0.2886751   0.2809431), wk =   0.0078125
        k(   18) = (  -0.0000001   0.2886747  -0.3745908), wk =   0.0078125
        k(   19) = (  -0.0000001   0.2886748  -0.2809431), wk =   0.0078125
        k(   20) = (  -0.0000001   0.2886748  -0.1872954), wk =   0.0078125
        k(   21) = (  -0.0000000   0.2886749  -0.0936477), wk =   0.0078125
        k(   22) = (  -0.0000001   0.4330124   0.0000000), wk =   0.0078125
        k(   23) = (  -0.0000001   0.4330125   0.0936477), wk =   0.0078125
        k(   24) = (  -0.0000000   0.4330125   0.1872954), wk =   0.0078125
        k(   25) = (  -0.0000000   0.4330125   0.2809431), wk =   0.0078125
        k(   26) = (  -0.0000001   0.4330122  -0.3745908), wk =   0.0078125
        k(   27) = (  -0.0000001   0.4330123  -0.2809431), wk =   0.0078125
        k(   28) = (  -0.0000001   0.4330123  -0.1872954), wk =   0.0078125
        k(   29) = (  -0.0000001   0.4330124  -0.0936477), wk =   0.0078125
        k(   30) = (   0.0000001  -0.5773499  -0.0000000), wk =   0.0039062
        k(   31) = (   0.0000001  -0.5773498   0.0936477), wk =   0.0078125
        k(   32) = (   0.0000001  -0.5773498   0.1872954), wk =   0.0078125
        k(   33) = (   0.0000001  -0.5773497   0.2809431), wk =   0.0078125
        k(   34) = (   0.0000000  -0.5773501  -0.3745908), wk =   0.0039062
        k(   35) = (   0.1250000   0.0721687  -0.0000000), wk =   0.0078125
        k(   36) = (   0.1250000   0.0721688   0.0936477), wk =   0.0078125
        k(   37) = (   0.1250000   0.0721688   0.1872954), wk =   0.0078125
        k(   38) = (   0.1250000   0.0721689   0.2809431), wk =   0.0078125
        k(   39) = (   0.1250000   0.0721685  -0.3745908), wk =   0.0078125
        k(   40) = (   0.1250000   0.0721686  -0.2809431), wk =   0.0078125
        k(   41) = (   0.1250000   0.0721686  -0.1872954), wk =   0.0078125
        k(   42) = (   0.1250000   0.0721687  -0.0936477), wk =   0.0078125
        k(   43) = (   0.1250000   0.2165062   0.0000000), wk =   0.0078125
        k(   44) = (   0.1250000   0.2165062   0.0936477), wk =   0.0078125
        k(   45) = (   0.1250000   0.2165063   0.1872954), wk =   0.0078125
        k(   46) = (   0.1250000   0.2165063   0.2809431), wk =   0.0078125
        k(   47) = (   0.1249999   0.2165060  -0.3745908), wk =   0.0078125
        k(   48) = (   0.1249999   0.2165060  -0.2809431), wk =   0.0078125
        k(   49) = (   0.1250000   0.2165061  -0.1872954), wk =   0.0078125
        k(   50) = (   0.1250000   0.2165061  -0.0936477), wk =   0.0078125
        k(   51) = (   0.1250000   0.3608437   0.0000000), wk =   0.0078125
        k(   52) = (   0.1250000   0.3608437   0.0936477), wk =   0.0078125
        k(   53) = (   0.1250000   0.3608437   0.1872954), wk =   0.0078125
        k(   54) = (   0.1250000   0.3608438   0.2809431), wk =   0.0078125
        k(   55) = (   0.1249999   0.3608435  -0.3745908), wk =   0.0078125
        k(   56) = (   0.1249999   0.3608435  -0.2809431), wk =   0.0078125
        k(   57) = (   0.1249999   0.3608436  -0.1872954), wk =   0.0078125
        k(   58) = (   0.1249999   0.3608436  -0.0936477), wk =   0.0078125
        k(   59) = (   0.1249999   0.5051811   0.0000000), wk =   0.0078125
        k(   60) = (   0.1249999   0.5051812   0.0936477), wk =   0.0078125
[...]
        k(  246) = (  -0.5000000  -0.0000000  -0.1872954), wk =   0.0078125
        k(  247) = (  -0.5000000   0.0000000  -0.0936477), wk =   0.0078125
        k(  248) = (  -0.5000000   0.1443375   0.0000000), wk =   0.0078125
        k(  249) = (  -0.5000000   0.1443376   0.0936477), wk =   0.0078125
        k(  250) = (  -0.5000000   0.1443376   0.1872954), wk =   0.0078125
        k(  251) = (  -0.5000000   0.1443377   0.2809432), wk =   0.0078125
        k(  252) = (  -0.5000001   0.1443373  -0.3745908), wk =   0.0078125
        k(  253) = (  -0.5000000   0.1443374  -0.2809431), wk =   0.0078125
        k(  254) = (  -0.5000000   0.1443374  -0.1872954), wk =   0.0078125
        k(  255) = (  -0.5000000   0.1443375  -0.0936477), wk =   0.0078125
        k(  256) = (  -0.4999999  -0.8660247  -0.0000000), wk =   0.0039062
        k(  257) = (  -0.4999999  -0.8660247   0.0936477), wk =   0.0078125
        k(  258) = (  -0.4999999  -0.8660246   0.1872954), wk =   0.0078125
        k(  259) = (  -0.4999999  -0.8660246   0.2809431), wk =   0.0078125
        k(  260) = (  -0.4999999  -0.8660249  -0.3745908), wk =   0.0039062

                       cryst. coord.
        k(    1) = (   0.0000000   0.0000000   0.0000000), wk =   0.0039062
        k(    2) = (   0.0000000   0.0000000   0.1250000), wk =   0.0078125
        k(    3) = (   0.0000000   0.0000000   0.2500000), wk =   0.0078125
        k(    4) = (  -0.0000000   0.0000000   0.3750000), wk =   0.0078125
        k(    5) = (  -0.0000000  -0.0000000  -0.5000000), wk =   0.0039062
        k(    6) = (   0.0000000   0.1250000  -0.0000000), wk =   0.0078125
        k(    7) = (   0.0000000   0.1250000   0.1250000), wk =   0.0078125
        k(    8) = (   0.0000000   0.1250000   0.2500000), wk =   0.0078125
        k(    9) = (   0.0000000   0.1250000   0.3750000), wk =   0.0078125
        k(   10) = (  -0.0000000   0.1250000  -0.5000000), wk =   0.0078125
        k(   11) = (   0.0000000   0.1250000  -0.3750000), wk =   0.0078125
        k(   12) = (   0.0000000   0.1250000  -0.2500000), wk =   0.0078125
        k(   13) = (   0.0000000   0.1250000  -0.1250000), wk =   0.0078125
        k(   14) = (   0.0000000   0.2500000  -0.0000000), wk =   0.0078125
        k(   15) = (   0.0000000   0.2500000   0.1250000), wk =   0.0078125
        k(   16) = (   0.0000000   0.2500000   0.2500000), wk =   0.0078125
        k(   17) = (  -0.0000000   0.2500000   0.3750000), wk =   0.0078125
        k(   18) = (   0.0000000   0.2500000  -0.5000000), wk =   0.0078125
        k(   19) = (   0.0000000   0.2500000  -0.3750000), wk =   0.0078125
        k(   20) = (   0.0000000   0.2500000  -0.2500000), wk =   0.0078125
        k(   21) = (   0.0000000   0.2500000  -0.1250000), wk =   0.0078125
        k(   22) = (   0.0000000   0.3750000  -0.0000000), wk =   0.0078125
        k(   23) = (   0.0000000   0.3750000   0.1250000), wk =   0.0078125
        k(   24) = (   0.0000000   0.3750000   0.2500000), wk =   0.0078125
        k(   25) = (   0.0000000   0.3750000   0.3750000), wk =   0.0078125
        k(   26) = (   0.0000000   0.3750000  -0.5000000), wk =   0.0078125
        k(   27) = (   0.0000000   0.3750000  -0.3750000), wk =   0.0078125
        k(   28) = (   0.0000000   0.3750000  -0.2500000), wk =   0.0078125
        k(   29) = (   0.0000000   0.3750000  -0.1250000), wk =   0.0078125
        k(   30) = (  -0.0000000  -0.5000000   0.0000000), wk =   0.0039062
        k(   31) = (  -0.0000000  -0.5000000   0.1250000), wk =   0.0078125
        k(   32) = (  -0.0000000  -0.5000000   0.2500000), wk =   0.0078125
        k(   33) = (  -0.0000000  -0.5000000   0.3750000), wk =   0.0078125
        k(   34) = (  -0.0000000  -0.5000000  -0.5000000), wk =   0.0039062
        k(   35) = (   0.1250000   0.0000000  -0.0000000), wk =   0.0078125
        k(   36) = (   0.1250000   0.0000000   0.1250000), wk =   0.0078125
        k(   37) = (   0.1250000   0.0000000   0.2500000), wk =   0.0078125
        k(   38) = (   0.1250000   0.0000000   0.3750000), wk =   0.0078125
        k(   39) = (   0.1250000   0.0000000  -0.5000000), wk =   0.0078125
        k(   40) = (   0.1250000   0.0000000  -0.3750000), wk =   0.0078125
        k(   41) = (   0.1250000   0.0000000  -0.2500000), wk =   0.0078125
        k(   42) = (   0.1250000   0.0000000  -0.1250000), wk =   0.0078125
        k(   43) = (   0.1250000   0.1250000  -0.0000000), wk =   0.0078125
        k(   44) = (   0.1250000   0.1250000   0.1250000), wk =   0.0078125
        k(   45) = (   0.1250000   0.1250000   0.2500000), wk =   0.0078125
        k(   46) = (   0.1250000   0.1250000   0.3750000), wk =   0.0078125
        k(   47) = (   0.1250000   0.1250000  -0.5000000), wk =   0.0078125
        k(   48) = (   0.1250000   0.1250000  -0.3750000), wk =   0.0078125
        k(   49) = (   0.1250000   0.1250000  -0.2500000), wk =   0.0078125
        k(   50) = (   0.1250000   0.1250000  -0.1250000), wk =   0.0078125
        k(   51) = (   0.1250000   0.2500000  -0.0000000), wk =   0.0078125
        k(   52) = (   0.1250000   0.2500000   0.1250000), wk =   0.0078125
        k(   53) = (   0.1250000   0.2500000   0.2500000), wk =   0.0078125
        k(   54) = (   0.1250000   0.2500000   0.3750000), wk =   0.0078125
        k(   55) = (   0.1250000   0.2500000  -0.5000000), wk =   0.0078125
        k(   56) = (   0.1250000   0.2500000  -0.3750000), wk =   0.0078125
        k(   57) = (   0.1250000   0.2500000  -0.2500000), wk =   0.0078125
        k(   58) = (   0.1250000   0.2500000  -0.1250000), wk =   0.0078125
        k(   59) = (   0.1250000   0.3750000  -0.0000000), wk =   0.0078125
        k(   60) = (   0.1250000   0.3750000   0.1250000), wk =   0.0078125
[...]
        k(  246) = (  -0.5000000   0.2500000  -0.2500000), wk =   0.0078125
        k(  247) = (  -0.5000000   0.2500000  -0.1250000), wk =   0.0078125
        k(  248) = (  -0.5000000   0.3750000   0.0000000), wk =   0.0078125
        k(  249) = (  -0.5000000   0.3750000   0.1250000), wk =   0.0078125
        k(  250) = (  -0.5000000   0.3750000   0.2500000), wk =   0.0078125
        k(  251) = (  -0.5000000   0.3750000   0.3750000), wk =   0.0078125
        k(  252) = (  -0.5000000   0.3750000  -0.5000000), wk =   0.0078125
        k(  253) = (  -0.5000000   0.3750000  -0.3750000), wk =   0.0078125
        k(  254) = (  -0.5000000   0.3750000  -0.2500000), wk =   0.0078125
        k(  255) = (  -0.5000000   0.3750000  -0.1250000), wk =   0.0078125
        k(  256) = (  -0.5000000  -0.5000000   0.0000000), wk =   0.0039062
        k(  257) = (  -0.5000000  -0.5000000   0.1250000), wk =   0.0078125
        k(  258) = (  -0.5000000  -0.5000000   0.2500000), wk =   0.0078125
        k(  259) = (  -0.5000000  -0.5000000   0.3750000), wk =   0.0078125
        k(  260) = (  -0.5000000  -0.5000000  -0.5000000), wk =   0.0039062

     Check: negative core charge=   -0.000003

     Initial potential from superposition of free atoms

     starting charge   41.69964, renormalised to   42.00000
     Starting wfcs are   26 randomized atomic wfcs

     Self-consistent Calculation

     iteration #  1     ecut=    80.00 Ry     beta= 0.50
     Davidson diagonalization with overlap
     ethr =  1.00E-02,  avg # of iterations =  2.0

     total energy              =    -650.63359946 Ry
     Harris-Foulkes estimate   =    -651.44802337 Ry
     estimated scf accuracy    <       1.22023732 Ry

[...]

     total energy              =    -651.12580302 Ry
     Harris-Foulkes estimate   =    -651.12579929 Ry
     estimated scf accuracy    <       0.00001123 Ry

     iteration #  7     ecut=    80.00 Ry     beta= 0.50
     Davidson diagonalization with overlap
     ethr =  2.67E-08,  avg # of iterations =  2.0

     End of self-consistent calculation

          k = 0.0000 0.0000 0.0000 (  3679 PWs)   bands (ev):

  -115.5046 -69.8724 -69.8585 -69.8585 -64.8760 -31.8790 -31.8399 -31.8399
   -10.1150  -8.7883   1.8297   1.8297   2.8881   3.1072   3.1072   3.2855
     5.7826   5.7826   6.9914   7.2337   7.2337

     occupation numbers
     1.0000   1.0000   1.0000   1.0000   1.0000   1.0000   1.0000   1.0000
     1.0000   1.0000   1.0000   1.0000   1.0000   1.0000   1.0000   1.0000
     1.0000   1.0000   1.0000   1.0000   1.0000

[...]

          k =-0.0000-0.0000-0.3746 (  3732 PWs)   bands (ev):

[...]

          k = 0.3750 0.0722-0.0936 (  3724 PWs)   bands (ev):

[...]

          k =-0.5000-0.8660-0.3746 (  3748 PWs)   bands (ev):

  -115.5045 -69.8724 -69.8598 -69.8589 -64.8749 -31.8778 -31.8617 -31.8448
    -9.3917  -8.7593   1.7869   2.1068   2.3662   2.5390   2.9888   3.3202
     4.5107   5.4696   5.9119   5.9941   7.2900

     occupation numbers
     1.0000   1.0000   1.0000   1.0000   1.0000   1.0000   1.0000   1.0000
     1.0000   1.0000   1.0000   1.0000   1.0000   1.0000   1.0000   1.0000
     1.0000   1.0000   1.0000   1.0000   1.0000

     highest occupied level (ev):     7.5264

!    total energy              =    -651.12580431 Ry
     Harris-Foulkes estimate   =    -651.12580406 Ry
     estimated scf accuracy    <       0.00000040 Ry

     The total energy is the sum of the following terms:

     one-electron contribution =    -526.36186157 Ry
     hartree contribution      =     277.08208043 Ry
     xc contribution           =     -73.08821818 Ry
     ewald contribution        =    -328.75780498 Ry

     convergence has been achieved in   7 iterations

     Forces acting on atoms (cartesian axes, Ry/au):

     atom    1 type  3   force =    -0.00000044   -0.00000092    0.00385394
     atom    2 type  3   force =    -0.00000029    0.00000029    0.00030454
     atom    3 type  2   force =     0.00000078    0.00000077    0.00512922
     atom    4 type  1   force =    -0.00000006   -0.00000014   -0.00928770
     The non-local contrib.  to forces
     atom    1 type  3   force =    -0.00000032   -0.00000146   -0.14668275
     atom    2 type  3   force =     0.00000032   -0.00000003   -0.03606513
     atom    3 type  2   force =     0.00000167   -0.00000680   -0.29023888
     atom    4 type  1   force =     0.00000065    0.00000048   -0.11938145
     The ionic contribution  to forces
     atom    1 type  3   force =    -0.00000336    0.00001353    3.60563548
     atom    2 type  3   force =    -0.00001259    0.00003912   -1.16162245
     atom    3 type  2   force =     0.00001194   -0.00005483   -1.21950299
     atom    4 type  1   force =     0.00000401    0.00000219   -1.22451004
     The local contribution  to forces
     atom    1 type  3   force =     0.00000291   -0.00001273   -3.45633466
     atom    2 type  3   force =     0.00001373   -0.00003667    1.19840112
     atom    3 type  2   force =    -0.00001418    0.00006100    1.51450941
     atom    4 type  1   force =    -0.00000434   -0.00000300    1.33466146
     The core correction contribution to forces
     atom    1 type  3   force =     0.00000000   -0.00000000    0.00101095
     atom    2 type  3   force =     0.00000001   -0.00000001   -0.00027327
     atom    3 type  2   force =     0.00000000    0.00000000    0.00000000
     atom    4 type  1   force =     0.00000000    0.00000000    0.00000000
     The Hubbard contrib.    to forces
     atom    1 type  3   force =     0.00000000    0.00000000    0.00000000
     atom    2 type  3   force =     0.00000000    0.00000000    0.00000000
     atom    3 type  2   force =     0.00000000    0.00000000    0.00000000
     atom    4 type  1   force =     0.00000000    0.00000000    0.00000000
     The SCF correction term to forces
     atom    1 type  3   force =     0.00000000    0.00000000    0.00000000
     atom    2 type  3   force =     0.00000000    0.00000000    0.00000000
     atom    3 type  2   force =     0.00000000    0.00000000    0.00000000
     atom    4 type  1   force =     0.00000000    0.00000000    0.00000000

     Total force =     0.000000     Total SCF correction =     0.000000

     Computing stress (Cartesian axis) and pressure

          total   stress  (Ry/bohr**3)                   (kbar)     P=   -0.75
  -0.00000272   0.00000000   0.00000000         -0.40      0.00      0.00
   0.00000000  -0.00000274   0.00000001          0.00     -0.40      0.00
   0.00000000   0.00000001  -0.00000984          0.00      0.00     -1.45

     kinetic stress (kbar)  27347.66      0.00     -0.00
                                0.00  27347.66      0.00
                               -0.00      0.00  27511.62

     local   stress (kbar) -11704.84     -0.01     -0.01
                               -0.01 -11704.79      0.04
                               -0.01      0.04  -6340.62

     nonloc. stress (kbar)   1841.77      0.00      0.00
                                0.00   1841.76     -0.00
                                0.00     -0.00   1776.31

     hartree stress (kbar)  44912.60      0.00      0.00
                                0.00  44912.58     -0.02
                                0.00     -0.02  42424.56

     exc-cor stress (kbar) -10826.02      0.00      0.00
                                0.00 -10826.02     -0.00
                                0.00     -0.00 -10828.25

     corecor stress (kbar)   -257.89     -0.00     -0.00
                               -0.00   -257.89     -0.00
                               -0.00     -0.00   -258.17

     ewald   stress (kbar) -51313.68      0.01      0.01
                                0.01 -51313.71     -0.02
                                0.01     -0.02 -54286.88

     hubbard stress (kbar)      0.00      0.00      0.00
                                0.00      0.00      0.00
                                0.00      0.00      0.00

     london  stress (kbar)      0.00      0.00      0.00
                                0.00      0.00      0.00
                                0.00      0.00      0.00

     DFT-D3  stress (kbar)      0.00      0.00      0.00
                                0.00      0.00      0.00
                                0.00      0.00      0.00

     XDM     stress (kbar)      0.00      0.00      0.00
                                0.00      0.00      0.00
                                0.00      0.00      0.00

     dft-nl  stress (kbar)      0.00      0.00      0.00
                                0.00      0.00      0.00
                                0.00      0.00      0.00

     TS-vdW  stress (kbar)      0.00      0.00      0.00
                                0.00      0.00      0.00
                                0.00      0.00      0.00

     Writing output data file ZnO.save/

     General routines

     Parallel routines

   This run was terminated on:  23:27:11  15Jun2022

   JOB DONE.