     Program PWSCF v.6.4.1 starts on 15Jun2022 at 20:47:36

     K-points division:     npool     =       4
     R & G space division:  proc/nbgrp/npool/nimage =      16
     Waiting for input...
     Reading input from standard input
Warning: card &IONS ignored
Warning: card   UPSCALE           = 100.D0, ignored
Warning: card / ignored
Warning: card &CELL ignored
Warning: card   CELL_DYNAMICS     = 'BFGS' ignored
Warning: card   PRESS_CONV_THR    = 0.5D0 ignored
Warning: card   CELL_DOFREE = 'ALL' ignored
Warning: card / ignored

     Current dimensions of program PWSCF are:
     Max number of different atomic species (ntypx) = 10
     Max number of k-points (npk) =  40000
     Max angular momentum in pseudopotentials (lmaxx) =  3

     bravais-lattice index     =            0
     lattice parameter (alat)  =       6.1605  a.u.
     unit-cell volume          =     318.9995 (a.u.)^3
     number of atoms/cell      =            4
     number of atomic types    =            2
     number of electrons       =        52.00
     number of Kohn-Sham states=           26
     kinetic-energy cutoff     =      80.0000  Ry
     charge density cutoff     =     600.0000  Ry
     convergence threshold     =      1.0E-06
     mixing beta               =       0.5000
     number of iterations used =            8  plain     mixing
     Exchange-correlation      = SLA  PW   PSX  PSC ( 1  4 10  8 0 0)

     celldm(1)=   6.160486  celldm(2)=   0.000000  celldm(3)=   0.000000
     celldm(4)=   0.000000  celldm(5)=   0.000000  celldm(6)=   0.000000

     crystal axes: (cart. coord. in units of alat)
               a(1) = (   1.000000  -0.000000  -0.000001 )
               a(2) = (  -0.500000   0.866025  -0.000001 )
               a(3) = (  -0.000002  -0.000003   1.575486 )

     reciprocal axes: (cart. coord. in units 2 pi/alat)
               b(1) = (  1.000000  0.577351  0.000002 )
               b(2) = (  0.000000  1.154701  0.000002 )
               b(3) = (  0.000001  0.000001  0.634725 )

     PseudoPot. # 1 for Zn read from file:
     ./GBRV_PBEsol/zn_pbesol_v1.uspp.F.UPF
     MD5 check sum: 7d8615e52efe7c1e2b1899de8658bae2
     Pseudo is Ultrasoft, Zval = 20.0
     Generated by new atomic code, or converted to UPF format
     Using radial grid of  943 points,  6 beta functions with:
                l(1) =   0
                l(2) =   0
                l(3) =   1
                l(4) =   1
                l(5) =   2
                l(6) =   2
     Q(r) pseudized with  8 coefficients,  rinner =    1.100   1.100   1.100
                                                       1.100   1.100

     PseudoPot. # 2 for O  read from file:
     ./GBRV_PBEsol/o_pbesol_v1.2.uspp.F.UPF
     MD5 check sum: 501638753501ef6325af9037351f7734
     Pseudo is Ultrasoft + core correction, Zval =  6.0
     Generated by new atomic code, or converted to UPF format
     Using radial grid of  737 points,  5 beta functions with:
                l(1) =   0
                l(2) =   0
                l(3) =   1
                l(4) =   1
                l(5) =   2
     Q(r) pseudized with  8 coefficients,  rinner =    0.900   0.900   0.900
                                                       0.900   0.900

     atomic species   valence    mass     pseudopotential
        Zn            20.00    65.38000     Zn( 1.00)
        O              6.00    15.99900     O ( 1.00)

     No symmetry found

                                    s                        frac. trans.

      isym =  1     identity

 cryst.   s( 1) = (     1          0          0      )
                  (     0          1          0      )
                  (     0          0          1      )

 cart.    s( 1) = (  1.0000000 -0.0000000  0.0000000 )
                  (  0.0000000  1.0000000 -0.0000000 )
                  (  0.0000000 -0.0000000  1.0000000 )

   Cartesian axes

     site n.     atom                  positions (alat units)
         1           O   tau(   1) = (   0.5000001   0.2886752   0.0115723  )
         2           O   tau(   2) = (  -0.0000009   0.5773478   0.7993151  )
         3           Zn  tau(   3) = (   0.4999990   0.2886727   0.9710565  )
         4           Zn  tau(   4) = (  -0.0000021   0.5773477   1.7587995  )

   Crystallographic axes

     site n.     atom                  positions (cryst. coord.)
         1           O   tau(   1) = (  0.6666670  0.3333337  0.0073459  )
         2           O   tau(   2) = (  0.3333329  0.6666657  0.5073458  )
         3           Zn  tau(   3) = (  0.6666664  0.3333329  0.6163542  )
         4           Zn  tau(   4) = (  0.3333336  0.6666677  1.1163542  )

     number of k points=   260
                       cart. coord. in units 2pi/alat
        k(    1) = (   0.0000000   0.0000000   0.0000000), wk =   0.0039062
        k(    2) = (   0.0000001   0.0000001   0.0793406), wk =   0.0078125
        k(    3) = (   0.0000001   0.0000003   0.1586812), wk =   0.0078125
        k(    4) = (   0.0000002   0.0000004   0.2380218), wk =   0.0078125
        k(    5) = (  -0.0000003  -0.0000006  -0.3173624), wk =   0.0039062
        k(    6) = (   0.0000000   0.1443376   0.0000003), wk =   0.0078125
        k(    7) = (   0.0000001   0.1443377   0.0793409), wk =   0.0078125
        k(    8) = (   0.0000002   0.1443379   0.1586815), wk =   0.0078125
        k(    9) = (   0.0000003   0.1443380   0.2380220), wk =   0.0078125
        k(   10) = (  -0.0000002   0.1443370  -0.3173621), wk =   0.0078125
        k(   11) = (  -0.0000002   0.1443372  -0.2380215), wk =   0.0078125
        k(   12) = (  -0.0000001   0.1443373  -0.1586809), wk =   0.0078125
        k(   13) = (  -0.0000000   0.1443374  -0.0793403), wk =   0.0078125
        k(   14) = (   0.0000001   0.2886752   0.0000005), wk =   0.0078125
        k(   15) = (   0.0000002   0.2886753   0.0793411), wk =   0.0078125
        k(   16) = (   0.0000002   0.2886755   0.1586817), wk =   0.0078125
        k(   17) = (   0.0000003   0.2886756   0.2380223), wk =   0.0078125
        k(   18) = (  -0.0000002   0.2886746  -0.3173618), wk =   0.0078125
        k(   19) = (  -0.0000001   0.2886748  -0.2380212), wk =   0.0078125
        k(   20) = (  -0.0000001   0.2886749  -0.1586806), wk =   0.0078125
        k(   21) = (   0.0000000   0.2886750  -0.0793400), wk =   0.0078125
        k(   22) = (   0.0000001   0.4330128   0.0000008), wk =   0.0078125
        k(   23) = (   0.0000002   0.4330129   0.0793414), wk =   0.0078125
        k(   24) = (   0.0000003   0.4330131   0.1586820), wk =   0.0078125
        k(   25) = (   0.0000003   0.4330132   0.2380226), wk =   0.0078125
        k(   26) = (  -0.0000002   0.4330122  -0.3173615), wk =   0.0078125
        k(   27) = (  -0.0000001   0.4330123  -0.2380210), wk =   0.0078125
        k(   28) = (  -0.0000000   0.4330125  -0.1586804), wk =   0.0078125
        k(   29) = (   0.0000001   0.4330126  -0.0793398), wk =   0.0078125
        k(   30) = (  -0.0000002  -0.5773504  -0.0000011), wk =   0.0039062
        k(   31) = (  -0.0000001  -0.5773502   0.0793395), wk =   0.0078125
        k(   32) = (  -0.0000000  -0.5773501   0.1586801), wk =   0.0078125
        k(   33) = (   0.0000001  -0.5773499   0.2380207), wk =   0.0078125
        k(   34) = (  -0.0000005  -0.5773509  -0.3173635), wk =   0.0039062
        k(   35) = (   0.1250000   0.0721688   0.0000003), wk =   0.0078125
        k(   36) = (   0.1250001   0.0721690   0.0793409), wk =   0.0078125
        k(   37) = (   0.1250002   0.0721691   0.1586814), wk =   0.0078125
        k(   38) = (   0.1250002   0.0721693   0.2380220), wk =   0.0078125
        k(   39) = (   0.1249997   0.0721683  -0.3173621), wk =   0.0078125
        k(   40) = (   0.1249998   0.0721684  -0.2380215), wk =   0.0078125
        k(   41) = (   0.1249999   0.0721685  -0.1586809), wk =   0.0078125
        k(   42) = (   0.1249999   0.0721687  -0.0793403), wk =   0.0078125
        k(   43) = (   0.1250001   0.2165064   0.0000005), wk =   0.0078125
        k(   44) = (   0.1250001   0.2165066   0.0793411), wk =   0.0078125
        k(   45) = (   0.1250002   0.2165067   0.1586817), wk =   0.0078125
        k(   46) = (   0.1250003   0.2165069   0.2380223), wk =   0.0078125
        k(   47) = (   0.1249998   0.2165059  -0.3173618), wk =   0.0078125
        k(   48) = (   0.1249998   0.2165060  -0.2380212), wk =   0.0078125
        k(   49) = (   0.1249999   0.2165061  -0.1586807), wk =   0.0078125
        k(   50) = (   0.1250000   0.2165063  -0.0793401), wk =   0.0078125
        k(   51) = (   0.1250001   0.3608440   0.0000008), wk =   0.0078125
        k(   52) = (   0.1250002   0.3608442   0.0793414), wk =   0.0078125
        k(   53) = (   0.1250002   0.3608443   0.1586820), wk =   0.0078125
        k(   54) = (   0.1250003   0.3608444   0.2380226), wk =   0.0078125
        k(   55) = (   0.1249998   0.3608434  -0.3173616), wk =   0.0078125
        k(   56) = (   0.1249999   0.3608436  -0.2380210), wk =   0.0078125
        k(   57) = (   0.1250000   0.3608437  -0.1586804), wk =   0.0078125
        k(   58) = (   0.1250000   0.3608439  -0.0793398), wk =   0.0078125
        k(   59) = (   0.1250001   0.5051816   0.0000011), wk =   0.0078125
        k(   60) = (   0.1250002   0.5051818   0.0793417), wk =   0.0078125
[...]
        k(  246) = (  -0.5000001  -0.0000004  -0.1586817), wk =   0.0078125
        k(  247) = (  -0.5000001  -0.0000003  -0.0793411), wk =   0.0078125
        k(  248) = (  -0.5000000   0.1443375  -0.0000002), wk =   0.0078125
        k(  249) = (  -0.4999999   0.1443376   0.0793404), wk =   0.0078125
        k(  250) = (  -0.4999998   0.1443377   0.1586810), wk =   0.0078125
        k(  251) = (  -0.4999997   0.1443379   0.2380216), wk =   0.0078125
        k(  252) = (  -0.5000002   0.1443369  -0.3173626), wk =   0.0078125
        k(  253) = (  -0.5000002   0.1443370  -0.2380220), wk =   0.0078125
        k(  254) = (  -0.5000001   0.1443372  -0.1586814), wk =   0.0078125
        k(  255) = (  -0.5000000   0.1443373  -0.0793408), wk =   0.0078125
        k(  256) = (  -0.5000002  -0.8660257  -0.0000021), wk =   0.0039062
        k(  257) = (  -0.5000002  -0.8660256   0.0793385), wk =   0.0078125
        k(  258) = (  -0.5000001  -0.8660254   0.1586791), wk =   0.0078125
        k(  259) = (  -0.5000000  -0.8660253   0.2380196), wk =   0.0078125
        k(  260) = (  -0.5000005  -0.8660263  -0.3173645), wk =   0.0039062

                       cryst. coord.
        k(    1) = (   0.0000000   0.0000000   0.0000000), wk =   0.0039062
        k(    2) = (  -0.0000000  -0.0000000   0.1250000), wk =   0.0078125
        k(    3) = (  -0.0000000  -0.0000000   0.2500000), wk =   0.0078125
        k(    4) = (   0.0000000  -0.0000000   0.3750000), wk =   0.0078125
        k(    5) = (   0.0000000   0.0000000  -0.5000000), wk =   0.0039062
        k(    6) = (   0.0000000   0.1250000  -0.0000000), wk =   0.0078125
        k(    7) = (  -0.0000000   0.1250000   0.1250000), wk =   0.0078125
        k(    8) = (   0.0000000   0.1250000   0.2500000), wk =   0.0078125
        k(    9) = (   0.0000000   0.1250000   0.3750000), wk =   0.0078125
        k(   10) = (  -0.0000000   0.1250000  -0.5000000), wk =   0.0078125
        k(   11) = (  -0.0000000   0.1250000  -0.3750000), wk =   0.0078125
        k(   12) = (  -0.0000000   0.1250000  -0.2500000), wk =   0.0078125
        k(   13) = (   0.0000000   0.1250000  -0.1250000), wk =   0.0078125
        k(   14) = (   0.0000000   0.2500000  -0.0000000), wk =   0.0078125
        k(   15) = (   0.0000000   0.2500000   0.1250000), wk =   0.0078125
        k(   16) = (  -0.0000000   0.2500000   0.2500000), wk =   0.0078125
        k(   17) = (  -0.0000000   0.2500000   0.3750000), wk =   0.0078125
        k(   18) = (  -0.0000000   0.2500000  -0.5000000), wk =   0.0078125
        k(   19) = (   0.0000000   0.2500000  -0.3750000), wk =   0.0078125
        k(   20) = (   0.0000000   0.2500000  -0.2500000), wk =   0.0078125
        k(   21) = (  -0.0000000   0.2500000  -0.1250000), wk =   0.0078125
        k(   22) = (   0.0000000   0.3750000  -0.0000000), wk =   0.0078125
        k(   23) = (   0.0000000   0.3750000   0.1250000), wk =   0.0078125
        k(   24) = (   0.0000000   0.3750000   0.2500000), wk =   0.0078125
        k(   25) = (   0.0000000   0.3750000   0.3750000), wk =   0.0078125
        k(   26) = (  -0.0000000   0.3750000  -0.5000000), wk =   0.0078125
        k(   27) = (   0.0000000   0.3750000  -0.3750000), wk =   0.0078125
        k(   28) = (   0.0000000   0.3750000  -0.2500000), wk =   0.0078125
        k(   29) = (   0.0000000   0.3750000  -0.1250000), wk =   0.0078125
        k(   30) = (  -0.0000000  -0.5000000   0.0000000), wk =   0.0039062
        k(   31) = (  -0.0000000  -0.5000000   0.1250000), wk =   0.0078125
        k(   32) = (   0.0000000  -0.5000000   0.2500000), wk =   0.0078125
        k(   33) = (   0.0000000  -0.5000000   0.3750000), wk =   0.0078125
        k(   34) = (   0.0000000  -0.5000000  -0.5000000), wk =   0.0039062
        k(   35) = (   0.1250000  -0.0000000   0.0000000), wk =   0.0078125
        k(   36) = (   0.1250000  -0.0000000   0.1250000), wk =   0.0078125
        k(   37) = (   0.1250000   0.0000000   0.2500000), wk =   0.0078125
        k(   38) = (   0.1250000   0.0000000   0.3750000), wk =   0.0078125
        k(   39) = (   0.1250000   0.0000000  -0.5000000), wk =   0.0078125
        k(   40) = (   0.1250000  -0.0000000  -0.3750000), wk =   0.0078125
        k(   41) = (   0.1250000  -0.0000000  -0.2500000), wk =   0.0078125
        k(   42) = (   0.1250000  -0.0000000  -0.1250000), wk =   0.0078125
        k(   43) = (   0.1250000   0.1250000   0.0000000), wk =   0.0078125
        k(   44) = (   0.1250000   0.1250000   0.1250000), wk =   0.0078125
        k(   45) = (   0.1250000   0.1250000   0.2500000), wk =   0.0078125
        k(   46) = (   0.1250000   0.1250000   0.3750000), wk =   0.0078125
        k(   47) = (   0.1250000   0.1250000  -0.5000000), wk =   0.0078125
        k(   48) = (   0.1250000   0.1250000  -0.3750000), wk =   0.0078125
        k(   49) = (   0.1250000   0.1250000  -0.2500000), wk =   0.0078125
        k(   50) = (   0.1250000   0.1250000  -0.1250000), wk =   0.0078125
        k(   51) = (   0.1250000   0.2500000  -0.0000000), wk =   0.0078125
        k(   52) = (   0.1250000   0.2500000   0.1250000), wk =   0.0078125
        k(   53) = (   0.1250000   0.2500000   0.2500000), wk =   0.0078125
        k(   54) = (   0.1250000   0.2500000   0.3750000), wk =   0.0078125
        k(   55) = (   0.1250000   0.2500000  -0.5000000), wk =   0.0078125
        k(   56) = (   0.1250000   0.2500000  -0.3750000), wk =   0.0078125
        k(   57) = (   0.1250000   0.2500000  -0.2500000), wk =   0.0078125
        k(   58) = (   0.1250000   0.2500000  -0.1250000), wk =   0.0078125
        k(   59) = (   0.1250000   0.3750000  -0.0000000), wk =   0.0078125
        k(   60) = (   0.1250000   0.3750000   0.1250000), wk =   0.0078125
[...]
        k(  246) = (  -0.5000000   0.2500000  -0.2500000), wk =   0.0078125
        k(  247) = (  -0.5000000   0.2500000  -0.1250000), wk =   0.0078125
        k(  248) = (  -0.5000000   0.3750000  -0.0000000), wk =   0.0078125
        k(  249) = (  -0.5000000   0.3750000   0.1250000), wk =   0.0078125
        k(  250) = (  -0.5000000   0.3750000   0.2500000), wk =   0.0078125
        k(  251) = (  -0.5000000   0.3750000   0.3750000), wk =   0.0078125
        k(  252) = (  -0.5000000   0.3750000  -0.5000000), wk =   0.0078125
        k(  253) = (  -0.5000000   0.3750000  -0.3750000), wk =   0.0078125
        k(  254) = (  -0.5000000   0.3750000  -0.2500000), wk =   0.0078125
        k(  255) = (  -0.5000000   0.3750000  -0.1250000), wk =   0.0078125
        k(  256) = (  -0.5000000  -0.5000000  -0.0000000), wk =   0.0039062
        k(  257) = (  -0.5000000  -0.5000000   0.1250000), wk =   0.0078125
        k(  258) = (  -0.5000000  -0.5000000   0.2500000), wk =   0.0078125
        k(  259) = (  -0.5000000  -0.5000000   0.3750000), wk =   0.0078125
        k(  260) = (  -0.5000000  -0.5000000  -0.5000000), wk =   0.0039062

     Check: negative core charge=   -0.000003

     Initial potential from superposition of free atoms

     starting charge   51.99974, renormalised to   52.00000
     Starting wfcs are   34 randomized atomic wfcs

     Self-consistent Calculation

     iteration #  1     ecut=    80.00 Ry     beta= 0.50
     Davidson diagonalization with overlap
     ethr =  1.00E-02,  avg # of iterations =  1.0

     total energy              =    -986.76720552 Ry
     Harris-Foulkes estimate   =    -987.28851428 Ry
     estimated scf accuracy    <       0.82042367 Ry

[...]

     total energy              =    -987.07960344 Ry
     Harris-Foulkes estimate   =    -987.07960278 Ry
     estimated scf accuracy    <       0.00000404 Ry

     iteration #  7     ecut=    80.00 Ry     beta= 0.50
     Davidson diagonalization with overlap
     ethr =  7.77E-09,  avg # of iterations =  1.9

     End of self-consistent calculation

          k = 0.0000 0.0000 0.0000 (  3861 PWs)   bands (ev):

  -114.3342-114.3339 -68.7059 -68.7023 -68.6866 -68.6866 -68.6858 -68.6858
    -9.2711  -8.4802   2.9664   2.9664   3.1201   3.1201   3.1466   3.1908
     4.2094   4.2094   4.4366   4.4366   4.7610   7.9999   7.9999   8.6290
     8.7684   8.7684

     occupation numbers
     1.0000   1.0000   1.0000   1.0000   1.0000   1.0000   1.0000   1.0000
     1.0000   1.0000   1.0000   1.0000   1.0000   1.0000   1.0000   1.0000
     1.0000   1.0000   1.0000   1.0000   1.0000   1.0000   1.0000   1.0000
     1.0000   1.0000

[...]

          k =-0.0000-0.0000-0.3174 (  3796 PWs)   bands (ev):

[...]

          k = 0.3750 0.0722-0.0793 (  3844 PWs)   bands (ev):

[...]

          k =-0.5000-0.8660-0.3174 (  3860 PWs)   bands (ev):

  -114.3340-114.3338 -68.7041 -68.7039 -68.6884 -68.6882 -68.6869 -68.6867
    -8.4175  -8.4172   2.5570   2.5570   3.4974   3.4974   3.5747   3.5748
     4.4026   4.4027   4.4999   4.5001   4.9638   4.9640   7.1601   7.1602
     7.4882   7.4883

     occupation numbers
     1.0000   1.0000   1.0000   1.0000   1.0000   1.0000   1.0000   1.0000
     1.0000   1.0000   1.0000   1.0000   1.0000   1.0000   1.0000   1.0000
     1.0000   1.0000   1.0000   1.0000   1.0000   1.0000   1.0000   1.0000
     1.0000   1.0000

     highest occupied level (ev):     8.7684

!    total energy              =    -987.07960363 Ry
     Harris-Foulkes estimate   =    -987.07960366 Ry
     estimated scf accuracy    <       0.00000008 Ry

     The total energy is the sum of the following terms:

     one-electron contribution =    -803.67706941 Ry
     hartree contribution      =     423.24653575 Ry
     xc contribution           =     -98.07650378 Ry
     ewald contribution        =    -508.57256619 Ry

     convergence has been achieved in   7 iterations

     Forces acting on atoms (cartesian axes, Ry/au):

     atom    1 type  2   force =    -0.00000195    0.00000052   -0.00623288
     atom    2 type  2   force =    -0.00000086    0.00000043   -0.00624405
     atom    3 type  1   force =     0.00000012    0.00000206    0.00620441
     atom    4 type  1   force =     0.00000269   -0.00000301    0.00627252
     The non-local contrib.  to forces
     atom    1 type  2   force =     0.00000365    0.00000007   -0.00152680
     atom    2 type  2   force =     0.00000167    0.00000333   -0.00152744
     atom    3 type  1   force =     0.00000218    0.00000389   -0.02953094
     atom    4 type  1   force =     0.00000807    0.00000596   -0.02951515
     The ionic contribution  to forces
     atom    1 type  2   force =    -0.00006430   -0.00001569    0.05134127
     atom    2 type  2   force =    -0.00001497   -0.00005982    0.05134548
     atom    3 type  1   force =     0.00001002    0.00004275   -0.05134055
     atom    4 type  1   force =     0.00006925    0.00003277   -0.05134620
     The local contribution  to forces
     atom    1 type  2   force =     0.00006067    0.00001466   -0.05607485
     atom    2 type  2   force =     0.00001334    0.00005796   -0.05605949
     atom    3 type  1   force =    -0.00001309   -0.00004781    0.08713908
     atom    4 type  1   force =    -0.00007807   -0.00003672    0.08708114
     The core correction contribution to forces
     atom    1 type  2   force =    -0.00000002    0.00000000   -0.00000753
     atom    2 type  2   force =    -0.00000001   -0.00000001   -0.00000750
     atom    3 type  1   force =     0.00000000    0.00000000    0.00000000
     atom    4 type  1   force =     0.00000000    0.00000000    0.00000000
     The Hubbard contrib.    to forces
     atom    1 type  2   force =     0.00000000    0.00000000    0.00000000
     atom    2 type  2   force =     0.00000000    0.00000000    0.00000000
     atom    3 type  1   force =     0.00000000    0.00000000    0.00000000
     atom    4 type  1   force =     0.00000000    0.00000000    0.00000000
     The SCF correction term to forces
     atom    1 type  2   force =     0.00000000    0.00000000    0.00000000
     atom    2 type  2   force =     0.00000000    0.00000000    0.00000000
     atom    3 type  1   force =     0.00000000    0.00000000    0.00000000
     atom    4 type  1   force =     0.00000000    0.00000000    0.00000000

     Total force =     0.000000     Total SCF correction =     0.000000

     Computing stress (Cartesian axis) and pressure

          total   stress  (Ry/bohr**3)                   (kbar)     P=   -3.34
  -0.00002297   0.00000000   0.00000000         -3.38      0.00      0.00
   0.00000000  -0.00002296   0.00000001          0.00     -3.38      0.00
   0.00000000   0.00000001  -0.00002210          0.00      0.00     -3.25

     kinetic stress (kbar)  33830.09     -0.00      0.00
                               -0.00  33830.09      0.00
                                0.00      0.00  33962.04

     local   stress (kbar)  -4039.45     -0.08     -0.03
                               -0.08  -4039.60      0.10
                               -0.03      0.10  -5956.45

     nonloc. stress (kbar)  -1670.43      0.00      0.00
                                0.00  -1670.43     -0.00
                                0.00     -0.00  -1725.06

     hartree stress (kbar)  64627.58      0.03      0.01
                                0.03  64627.64     -0.04
                                0.01     -0.04  65922.82

     exc-cor stress (kbar) -14144.75      0.00      0.00
                                0.00 -14144.75     -0.00
                                0.00     -0.00 -14146.72

     corecor stress (kbar)   -248.89     -0.00     -0.00
                               -0.00   -248.89     -0.00
                               -0.00     -0.00   -249.13

     ewald   stress (kbar) -78357.52      0.05      0.01
                                0.05 -78357.44     -0.06
                                0.01     -0.06 -77810.75

     hubbard stress (kbar)      0.00      0.00      0.00
                                0.00      0.00      0.00
                                0.00      0.00      0.00

     london  stress (kbar)      0.00      0.00      0.00
                                0.00      0.00      0.00
                                0.00      0.00      0.00

     DFT-D3  stress (kbar)      0.00      0.00      0.00
                                0.00      0.00      0.00
                                0.00      0.00      0.00

     XDM     stress (kbar)      0.00      0.00      0.00
                                0.00      0.00      0.00
                                0.00      0.00      0.00

     dft-nl  stress (kbar)      0.00      0.00      0.00
                                0.00      0.00      0.00
                                0.00      0.00      0.00

     TS-vdW  stress (kbar)      0.00      0.00      0.00
                                0.00      0.00      0.00
                                0.00      0.00      0.00

     Writing output data file ZnO.save/

     General routines

     Parallel routines

   This run was terminated on:  20:47:46  15Jun2022

   JOB DONE.