     Program PWSCF v.6.4.1 starts on 15Jun2022 at 23:23:56

     K-points division:     npool     =       4
     R & G space division:  proc/nbgrp/npool/nimage =      16
     Waiting for input...
     Reading input from standard input
Warning: card &IONS ignored
Warning: card   UPSCALE           = 100.D0, ignored
Warning: card / ignored
Warning: card &CELL ignored
Warning: card   CELL_DYNAMICS     = 'BFGS' ignored
Warning: card   PRESS_CONV_THR    = 0.5D0 ignored
Warning: card   CELL_DOFREE = 'ALL' ignored
Warning: card / ignored

     Current dimensions of program PWSCF are:
     Max number of different atomic species (ntypx) = 10
     Max number of k-points (npk) =  40000
     Max angular momentum in pseudopotentials (lmaxx) =  3

     bravais-lattice index     =            0
     lattice parameter (alat)  =       6.1787  a.u.
     unit-cell volume          =     319.7655 (a.u.)^3
     number of atoms/cell      =            4
     number of atomic types    =            3
     number of electrons       =        42.00
     number of Kohn-Sham states=           21
     kinetic-energy cutoff     =      80.0000  Ry
     charge density cutoff     =     600.0000  Ry
     convergence threshold     =      1.0E-06
     mixing beta               =       0.5000
     number of iterations used =            8  plain     mixing
     Exchange-correlation      = SLA  PW   PSX  PSC ( 1  4 10  8 0 0)

     celldm(1)=   6.178713  celldm(2)=   0.000000  celldm(3)=   0.000000
     celldm(4)=   0.000000  celldm(5)=   0.000000  celldm(6)=   0.000000

     crystal axes: (cart. coord. in units of alat)
               a(1) = (   1.000000   0.000000   0.000000 )
               a(2) = (  -0.500000   0.866025   0.000000 )
               a(3) = (   0.000000   0.000000   1.565333 )

     reciprocal axes: (cart. coord. in units 2 pi/alat)
               b(1) = (  1.000000  0.577350 -0.000000 )
               b(2) = ( -0.000000  1.154701 -0.000000 )
               b(3) = ( -0.000000 -0.000000  0.638842 )

     PseudoPot. # 1 for Mg read from file:
     ./GBRV_PBEsol/mg_pbesol_v1.4.uspp.F.UPF
     MD5 check sum: 4059f37963cf5867752dbf5ab2400678
     Pseudo is Ultrasoft, Zval = 10.0
     Generated by new atomic code, or converted to UPF format
     Using radial grid of  821 points,  7 beta functions with:
                l(1) =   0
                l(2) =   0
                l(3) =   0
                l(4) =   1
                l(5) =   1
                l(6) =   2
                l(7) =   2
     Q(r) pseudized with  8 coefficients,  rinner =    1.200   1.200   1.200
                                                       1.200   1.200

     PseudoPot. # 2 for Zn read from file:
     ./GBRV_PBEsol/zn_pbesol_v1.uspp.F.UPF
     MD5 check sum: 7d8615e52efe7c1e2b1899de8658bae2
     Pseudo is Ultrasoft, Zval = 20.0
     Generated by new atomic code, or converted to UPF format
     Using radial grid of  943 points,  6 beta functions with:
                l(1) =   0
                l(2) =   0
                l(3) =   1
                l(4) =   1
                l(5) =   2
                l(6) =   2
     Q(r) pseudized with  8 coefficients,  rinner =    1.100   1.100   1.100
                                                       1.100   1.100

     PseudoPot. # 3 for O  read from file:
     ./GBRV_PBEsol/o_pbesol_v1.2.uspp.F.UPF
     MD5 check sum: 501638753501ef6325af9037351f7734
     Pseudo is Ultrasoft + core correction, Zval =  6.0
     Generated by new atomic code, or converted to UPF format
     Using radial grid of  737 points,  5 beta functions with:
                l(1) =   0
                l(2) =   0
                l(3) =   1
                l(4) =   1
                l(5) =   2
     Q(r) pseudized with  8 coefficients,  rinner =    0.900   0.900   0.900
                                                       0.900   0.900

     atomic species   valence    mass     pseudopotential
        Mg            10.00    24.30500     Mg( 1.00)
        Zn            20.00    65.38000     Zn( 1.00)
        O              6.00    15.99900     O ( 1.00)

     No symmetry found

                                    s                        frac. trans.

      isym =  1     identity

 cryst.   s( 1) = (     1          0          0      )
                  (     0          1          0      )
                  (     0          0          1      )

 cart.    s( 1) = (  1.0000000  0.0000000 -0.0000000 )
                  (  0.0000000  1.0000000 -0.0000000 )
                  ( -0.0000000 -0.0000000  1.0000000 )

   Cartesian axes

     site n.     atom                  positions (alat units)
         1           O   tau(   1) = (   0.5000002   0.2886755   0.0114988  )
         2           O   tau(   2) = (   0.0000002   0.5773496   0.7941654  )
         3           Zn  tau(   3) = (   0.5000001   0.2886750   0.6167320  )
         4           Mg  tau(   4) = (  -0.0000000   0.5773514   1.4045403  )

   Crystallographic axes

     site n.     atom                  positions (cryst. coord.)
         1           O   tau(   1) = (  0.6666670  0.3333337  0.0073459  )
         2           O   tau(   2) = (  0.3333329  0.6666657  0.5073458  )
         3           Zn  tau(   3) = (  0.6666664  0.3333329  0.3939939  )
         4           Mg  tau(   4) = (  0.3333337  0.6666677  0.8972785  )

     number of k points=   260
                       cart. coord. in units 2pi/alat
        k(    1) = (   0.0000000   0.0000000   0.0000000), wk =   0.0039062
        k(    2) = (  -0.0000000  -0.0000000   0.0798552), wk =   0.0078125
        k(    3) = (  -0.0000000  -0.0000000   0.1597104), wk =   0.0078125
        k(    4) = (  -0.0000000  -0.0000001   0.2395656), wk =   0.0078125
        k(    5) = (   0.0000000   0.0000001  -0.3194208), wk =   0.0039062
        k(    6) = (  -0.0000000   0.1443376  -0.0000000), wk =   0.0078125
        k(    7) = (  -0.0000000   0.1443376   0.0798552), wk =   0.0078125
        k(    8) = (  -0.0000000   0.1443375   0.1597103), wk =   0.0078125
        k(    9) = (  -0.0000000   0.1443375   0.2395655), wk =   0.0078125
        k(   10) = (   0.0000000   0.1443377  -0.3194208), wk =   0.0078125
        k(   11) = (   0.0000000   0.1443376  -0.2395656), wk =   0.0078125
        k(   12) = (   0.0000000   0.1443376  -0.1597104), wk =   0.0078125
        k(   13) = (  -0.0000000   0.1443376  -0.0798552), wk =   0.0078125
        k(   14) = (  -0.0000000   0.2886751  -0.0000001), wk =   0.0078125
        k(   15) = (  -0.0000000   0.2886751   0.0798551), wk =   0.0078125
        k(   16) = (  -0.0000000   0.2886751   0.1597103), wk =   0.0078125
        k(   17) = (  -0.0000001   0.2886751   0.2395655), wk =   0.0078125
        k(   18) = (   0.0000000   0.2886752  -0.3194208), wk =   0.0078125
        k(   19) = (  -0.0000000   0.2886752  -0.2395656), wk =   0.0078125
        k(   20) = (  -0.0000000   0.2886752  -0.1597104), wk =   0.0078125
        k(   21) = (  -0.0000000   0.2886752  -0.0798553), wk =   0.0078125
        k(   22) = (  -0.0000000   0.4330127  -0.0000001), wk =   0.0078125
        k(   23) = (  -0.0000001   0.4330127   0.0798551), wk =   0.0078125
        k(   24) = (  -0.0000001   0.4330127   0.1597103), wk =   0.0078125
        k(   25) = (  -0.0000001   0.4330127   0.2395655), wk =   0.0078125
        k(   26) = (  -0.0000000   0.4330128  -0.3194208), wk =   0.0078125
        k(   27) = (  -0.0000000   0.4330128  -0.2395657), wk =   0.0078125
        k(   28) = (  -0.0000000   0.4330128  -0.1597105), wk =   0.0078125
        k(   29) = (  -0.0000000   0.4330127  -0.0798553), wk =   0.0078125
        k(   30) = (   0.0000001  -0.5773503   0.0000001), wk =   0.0039062
        k(   31) = (   0.0000000  -0.5773503   0.0798553), wk =   0.0078125
        k(   32) = (   0.0000000  -0.5773503   0.1597105), wk =   0.0078125
        k(   33) = (   0.0000000  -0.5773504   0.2395657), wk =   0.0078125
        k(   34) = (   0.0000001  -0.5773502  -0.3194206), wk =   0.0039062
        k(   35) = (   0.1250000   0.0721688  -0.0000000), wk =   0.0078125
        k(   36) = (   0.1250000   0.0721688   0.0798552), wk =   0.0078125
        k(   37) = (   0.1250000   0.0721687   0.1597103), wk =   0.0078125
        k(   38) = (   0.1250000   0.0721687   0.2395655), wk =   0.0078125
        k(   39) = (   0.1250000   0.0721689  -0.3194208), wk =   0.0078125
        k(   40) = (   0.1250000   0.0721688  -0.2395656), wk =   0.0078125
        k(   41) = (   0.1250000   0.0721688  -0.1597104), wk =   0.0078125
        k(   42) = (   0.1250000   0.0721688  -0.0798552), wk =   0.0078125
        k(   43) = (   0.1250000   0.2165063  -0.0000001), wk =   0.0078125
        k(   44) = (   0.1250000   0.2165063   0.0798551), wk =   0.0078125
        k(   45) = (   0.1250000   0.2165063   0.1597103), wk =   0.0078125
        k(   46) = (   0.1250000   0.2165063   0.2395655), wk =   0.0078125
        k(   47) = (   0.1250000   0.2165064  -0.3194208), wk =   0.0078125
        k(   48) = (   0.1250000   0.2165064  -0.2395656), wk =   0.0078125
        k(   49) = (   0.1250000   0.2165064  -0.1597104), wk =   0.0078125
        k(   50) = (   0.1250000   0.2165064  -0.0798552), wk =   0.0078125
        k(   51) = (   0.1250000   0.3608439  -0.0000001), wk =   0.0078125
        k(   52) = (   0.1250000   0.3608439   0.0798551), wk =   0.0078125
        k(   53) = (   0.1249999   0.3608439   0.1597103), wk =   0.0078125
        k(   54) = (   0.1249999   0.3608439   0.2395655), wk =   0.0078125
        k(   55) = (   0.1250000   0.3608440  -0.3194208), wk =   0.0078125
        k(   56) = (   0.1250000   0.3608440  -0.2395657), wk =   0.0078125
        k(   57) = (   0.1250000   0.3608440  -0.1597105), wk =   0.0078125
        k(   58) = (   0.1250000   0.3608439  -0.0798553), wk =   0.0078125
        k(   59) = (   0.1250000   0.5051815  -0.0000001), wk =   0.0078125
        k(   60) = (   0.1249999   0.5051815   0.0798551), wk =   0.0078125
[...]
        k(  246) = (  -0.5000000   0.0000001  -0.1597103), wk =   0.0078125
        k(  247) = (  -0.5000000   0.0000001  -0.0798551), wk =   0.0078125
        k(  248) = (  -0.5000000   0.1443376   0.0000000), wk =   0.0078125
        k(  249) = (  -0.5000000   0.1443376   0.0798552), wk =   0.0078125
        k(  250) = (  -0.5000000   0.1443376   0.1597104), wk =   0.0078125
        k(  251) = (  -0.5000000   0.1443376   0.2395656), wk =   0.0078125
        k(  252) = (  -0.5000000   0.1443377  -0.3194207), wk =   0.0078125
        k(  253) = (  -0.5000000   0.1443377  -0.2395656), wk =   0.0078125
        k(  254) = (  -0.5000000   0.1443377  -0.1597104), wk =   0.0078125
        k(  255) = (  -0.5000000   0.1443376  -0.0798552), wk =   0.0078125
        k(  256) = (  -0.4999999  -0.8660254   0.0000002), wk =   0.0039062
        k(  257) = (  -0.4999999  -0.8660254   0.0798554), wk =   0.0078125
        k(  258) = (  -0.4999999  -0.8660254   0.1597106), wk =   0.0078125
        k(  259) = (  -0.4999999  -0.8660254   0.2395658), wk =   0.0078125
        k(  260) = (  -0.4999999  -0.8660253  -0.3194205), wk =   0.0039062

                       cryst. coord.
        k(    1) = (   0.0000000   0.0000000   0.0000000), wk =   0.0039062
        k(    2) = (  -0.0000000  -0.0000000   0.1250000), wk =   0.0078125
        k(    3) = (  -0.0000000  -0.0000000   0.2500000), wk =   0.0078125
        k(    4) = (  -0.0000000  -0.0000000   0.3750000), wk =   0.0078125
        k(    5) = (   0.0000000   0.0000000  -0.5000000), wk =   0.0039062
        k(    6) = (  -0.0000000   0.1250000  -0.0000000), wk =   0.0078125
        k(    7) = (  -0.0000000   0.1250000   0.1250000), wk =   0.0078125
        k(    8) = (   0.0000000   0.1250000   0.2500000), wk =   0.0078125
        k(    9) = (  -0.0000000   0.1250000   0.3750000), wk =   0.0078125
        k(   10) = (   0.0000000   0.1250000  -0.5000000), wk =   0.0078125
        k(   11) = (   0.0000000   0.1250000  -0.3750000), wk =   0.0078125
        k(   12) = (  -0.0000000   0.1250000  -0.2500000), wk =   0.0078125
        k(   13) = (   0.0000000   0.1250000  -0.1250000), wk =   0.0078125
        k(   14) = (  -0.0000000   0.2500000  -0.0000000), wk =   0.0078125
        k(   15) = (  -0.0000000   0.2500000   0.1250000), wk =   0.0078125
        k(   16) = (  -0.0000000   0.2500000   0.2500000), wk =   0.0078125
        k(   17) = (   0.0000000   0.2500000   0.3750000), wk =   0.0078125
        k(   18) = (  -0.0000000   0.2500000  -0.5000000), wk =   0.0078125
        k(   19) = (   0.0000000   0.2500000  -0.3750000), wk =   0.0078125
        k(   20) = (   0.0000000   0.2500000  -0.2500000), wk =   0.0078125
        k(   21) = (   0.0000000   0.2500000  -0.1250000), wk =   0.0078125
        k(   22) = (  -0.0000000   0.3750000  -0.0000000), wk =   0.0078125
        k(   23) = (  -0.0000000   0.3750000   0.1250000), wk =   0.0078125
        k(   24) = (   0.0000000   0.3750000   0.2500000), wk =   0.0078125
        k(   25) = (  -0.0000000   0.3750000   0.3750000), wk =   0.0078125
        k(   26) = (  -0.0000000   0.3750000  -0.5000000), wk =   0.0078125
        k(   27) = (  -0.0000000   0.3750000  -0.3750000), wk =   0.0078125
        k(   28) = (   0.0000000   0.3750000  -0.2500000), wk =   0.0078125
        k(   29) = (  -0.0000000   0.3750000  -0.1250000), wk =   0.0078125
        k(   30) = (   0.0000000  -0.5000000   0.0000000), wk =   0.0039062
        k(   31) = (   0.0000000  -0.5000000   0.1250000), wk =   0.0078125
        k(   32) = (  -0.0000000  -0.5000000   0.2500000), wk =   0.0078125
        k(   33) = (  -0.0000000  -0.5000000   0.3750000), wk =   0.0078125
        k(   34) = (   0.0000000  -0.5000000  -0.5000000), wk =   0.0039062
        k(   35) = (   0.1250000  -0.0000000  -0.0000000), wk =   0.0078125
        k(   36) = (   0.1250000   0.0000000   0.1250000), wk =   0.0078125
        k(   37) = (   0.1250000   0.0000000   0.2500000), wk =   0.0078125
        k(   38) = (   0.1250000   0.0000000   0.3750000), wk =   0.0078125
        k(   39) = (   0.1250000   0.0000000  -0.5000000), wk =   0.0078125
        k(   40) = (   0.1250000  -0.0000000  -0.3750000), wk =   0.0078125
        k(   41) = (   0.1250000  -0.0000000  -0.2500000), wk =   0.0078125
        k(   42) = (   0.1250000   0.0000000  -0.1250000), wk =   0.0078125
        k(   43) = (   0.1250000   0.1250000  -0.0000000), wk =   0.0078125
        k(   44) = (   0.1250000   0.1250000   0.1250000), wk =   0.0078125
        k(   45) = (   0.1250000   0.1250000   0.2500000), wk =   0.0078125
        k(   46) = (   0.1250000   0.1250000   0.3750000), wk =   0.0078125
        k(   47) = (   0.1250000   0.1250000  -0.5000000), wk =   0.0078125
        k(   48) = (   0.1250000   0.1250000  -0.3750000), wk =   0.0078125
        k(   49) = (   0.1250000   0.1250000  -0.2500000), wk =   0.0078125
        k(   50) = (   0.1250000   0.1250000  -0.1250000), wk =   0.0078125
        k(   51) = (   0.1250000   0.2500000   0.0000000), wk =   0.0078125
        k(   52) = (   0.1250000   0.2500000   0.1250000), wk =   0.0078125
        k(   53) = (   0.1250000   0.2500000   0.2500000), wk =   0.0078125
        k(   54) = (   0.1250000   0.2500000   0.3750000), wk =   0.0078125
        k(   55) = (   0.1250000   0.2500000  -0.5000000), wk =   0.0078125
        k(   56) = (   0.1250000   0.2500000  -0.3750000), wk =   0.0078125
        k(   57) = (   0.1250000   0.2500000  -0.2500000), wk =   0.0078125
        k(   58) = (   0.1250000   0.2500000  -0.1250000), wk =   0.0078125
        k(   59) = (   0.1250000   0.3750000  -0.0000000), wk =   0.0078125
        k(   60) = (   0.1250000   0.3750000   0.1250000), wk =   0.0078125
[...]
        k(  246) = (  -0.5000000   0.2500000  -0.2500000), wk =   0.0078125
        k(  247) = (  -0.5000000   0.2500000  -0.1250000), wk =   0.0078125
        k(  248) = (  -0.5000000   0.3750000  -0.0000000), wk =   0.0078125
        k(  249) = (  -0.5000000   0.3750000   0.1250000), wk =   0.0078125
        k(  250) = (  -0.5000000   0.3750000   0.2500000), wk =   0.0078125
        k(  251) = (  -0.5000000   0.3750000   0.3750000), wk =   0.0078125
        k(  252) = (  -0.5000000   0.3750000  -0.5000000), wk =   0.0078125
        k(  253) = (  -0.5000000   0.3750000  -0.3750000), wk =   0.0078125
        k(  254) = (  -0.5000000   0.3750000  -0.2500000), wk =   0.0078125
        k(  255) = (  -0.5000000   0.3750000  -0.1250000), wk =   0.0078125
        k(  256) = (  -0.5000000  -0.5000000   0.0000000), wk =   0.0039062
        k(  257) = (  -0.5000000  -0.5000000   0.1250000), wk =   0.0078125
        k(  258) = (  -0.5000000  -0.5000000   0.2500000), wk =   0.0078125
        k(  259) = (  -0.5000000  -0.5000000   0.3750000), wk =   0.0078125
        k(  260) = (  -0.5000000  -0.5000000  -0.5000000), wk =   0.0039062

     Check: negative core charge=   -0.000003

     Initial potential from superposition of free atoms

     starting charge   41.69964, renormalised to   42.00000
     Starting wfcs are   26 randomized atomic wfcs

     Self-consistent Calculation

     iteration #  1     ecut=    80.00 Ry     beta= 0.50
     Davidson diagonalization with overlap
     ethr =  1.00E-02,  avg # of iterations =  2.0

     total energy              =    -650.62393781 Ry
     Harris-Foulkes estimate   =    -651.46364267 Ry
     estimated scf accuracy    <       1.25955417 Ry

[...]

     total energy              =    -651.13102179 Ry
     Harris-Foulkes estimate   =    -651.13102218 Ry
     estimated scf accuracy    <       0.00000284 Ry

     iteration #  8     ecut=    80.00 Ry     beta= 0.50
     Davidson diagonalization with overlap
     ethr =  6.77E-09,  avg # of iterations =  2.6

     End of self-consistent calculation

          k = 0.0000 0.0000 0.0000 (  3861 PWs)   bands (ev):

  -115.8808 -70.2454 -70.2344 -70.2344 -65.3139 -32.3090 -32.2812 -32.2812
   -10.4499  -9.5253   1.5907   1.5907   1.9987   2.5016   2.7094   2.7094
     5.5817   5.5817   6.6704   6.8763   6.8763

     occupation numbers
     1.0000   1.0000   1.0000   1.0000   1.0000   1.0000   1.0000   1.0000
     1.0000   1.0000   1.0000   1.0000   1.0000   1.0000   1.0000   1.0000
     1.0000   1.0000   1.0000   1.0000   1.0000

          k =-0.0000-0.0000 0.0799 (  3891 PWs)   bands (ev):

[...]

          k = 0.3750 0.0722-0.0799 (  3854 PWs)   bands (ev):

[...]

          k =-0.5000-0.8660-0.3194 (  3888 PWs)   bands (ev):

  -115.8807 -70.2453 -70.2364 -70.2350 -65.3120 -32.3120 -32.3053 -32.2880
    -9.7709  -9.3280   1.3632   2.0282   2.0347   2.2874   2.7886   2.8694
     3.9146   5.1362   5.1999   5.7886   6.1320

     occupation numbers
     1.0000   1.0000   1.0000   1.0000   1.0000   1.0000   1.0000   1.0000
     1.0000   1.0000   1.0000   1.0000   1.0000   1.0000   1.0000   1.0000
     1.0000   1.0000   1.0000   1.0000   1.0000

     highest occupied level (ev):     6.8763

!    total energy              =    -651.13102231 Ry
     Harris-Foulkes estimate   =    -651.13102227 Ry
     estimated scf accuracy    <       0.00000008 Ry

     The total energy is the sum of the following terms:

     one-electron contribution =    -538.94295066 Ry
     hartree contribution      =     282.70569664 Ry
     xc contribution           =     -73.06862478 Ry
     ewald contribution        =    -321.82514352 Ry

     convergence has been achieved in   8 iterations

     Forces acting on atoms (cartesian axes, Ry/au):

     atom    1 type  3   force =    -0.00000025    0.00000003   -0.00619180
     atom    2 type  3   force =    -0.00000038    0.00000017    0.00683096
     atom    3 type  2   force =     0.00000050    0.00000091   -0.00430814
     atom    4 type  1   force =     0.00000013   -0.00000110    0.00366898
     The non-local contrib.  to forces
     atom    1 type  3   force =    -0.00000013   -0.00000080    0.16103851
     atom    2 type  3   force =     0.00000049    0.00000076   -0.10987980
     atom    3 type  2   force =     0.00000212   -0.00000314    0.13655215
     atom    4 type  1   force =     0.00000116   -0.00000013    0.01316867
     The ionic contribution  to forces
     atom    1 type  3   force =    -0.00000572    0.00002100   -7.20830562
     atom    2 type  3   force =    -0.00001144    0.00000753    6.55132207
     atom    3 type  2   force =     0.00001066   -0.00002161    0.94237315
     atom    4 type  1   force =     0.00000650   -0.00000691   -0.28538960
     The local contribution  to forces
     atom    1 type  3   force =     0.00000533   -0.00002007    7.04271472
     atom    2 type  3   force =     0.00001015   -0.00000764   -6.43580541
     atom    3 type  2   force =    -0.00001149    0.00002526   -1.08409096
     atom    4 type  1   force =    -0.00000737    0.00000631    0.27630302
     The core correction contribution to forces
     atom    1 type  3   force =     0.00000001   -0.00000001   -0.00154857
     atom    2 type  3   force =    -0.00000000   -0.00000001    0.00132219
     atom    3 type  2   force =     0.00000000    0.00000000    0.00000000
     atom    4 type  1   force =     0.00000000    0.00000000    0.00000000
     The Hubbard contrib.    to forces
     atom    1 type  3   force =     0.00000000    0.00000000    0.00000000
     atom    2 type  3   force =     0.00000000    0.00000000    0.00000000
     atom    3 type  2   force =     0.00000000    0.00000000    0.00000000
     atom    4 type  1   force =     0.00000000    0.00000000    0.00000000
     The SCF correction term to forces
     atom    1 type  3   force =     0.00000000    0.00000000    0.00000000
     atom    2 type  3   force =     0.00000000    0.00000000    0.00000000
     atom    3 type  2   force =     0.00000000    0.00000000    0.00000000
     atom    4 type  1   force =     0.00000000    0.00000000    0.00000000

     Total force =     0.000000     Total SCF correction =     0.000000

     Computing stress (Cartesian axis) and pressure

          total   stress  (Ry/bohr**3)                   (kbar)     P=   -0.13
   0.00000017  -0.00000000  -0.00000001          0.02     -0.00     -0.00
  -0.00000000   0.00000017  -0.00000001         -0.00      0.02     -0.00
  -0.00000001  -0.00000001  -0.00000294         -0.00     -0.00     -0.43

     kinetic stress (kbar)  26388.48      0.00     -0.00
                                0.00  26388.48     -0.00
                               -0.00     -0.00  26432.86

     local   stress (kbar) -18537.08     -0.01      0.02
                               -0.01 -18537.08     -0.06
                                0.02     -0.06   2610.42

     nonloc. stress (kbar)   1772.40      0.00      0.00
                                0.00   1772.40      0.00
                                0.00      0.00   1750.03

     hartree stress (kbar)  46743.58      0.00     -0.01
                                0.00  46743.58      0.02
                               -0.01      0.02  36568.89

     exc-cor stress (kbar) -10432.62      0.00      0.00
                                0.00 -10432.62      0.00
                                0.00      0.00 -10433.53

     corecor stress (kbar)   -248.64     -0.00      0.00
                               -0.00   -248.64      0.00
                                0.00      0.00   -248.73

     ewald   stress (kbar) -45686.10      0.00     -0.01
                                0.00 -45686.10      0.03
                               -0.01      0.03 -56680.38

     hubbard stress (kbar)      0.00      0.00      0.00
                                0.00      0.00      0.00
                                0.00      0.00      0.00

     london  stress (kbar)      0.00      0.00      0.00
                                0.00      0.00      0.00
                                0.00      0.00      0.00

     DFT-D3  stress (kbar)      0.00      0.00      0.00
                                0.00      0.00      0.00
                                0.00      0.00      0.00

     XDM     stress (kbar)      0.00      0.00      0.00
                                0.00      0.00      0.00
                                0.00      0.00      0.00

     dft-nl  stress (kbar)      0.00      0.00      0.00
                                0.00      0.00      0.00
                                0.00      0.00      0.00

     TS-vdW  stress (kbar)      0.00      0.00      0.00
                                0.00      0.00      0.00
                                0.00      0.00      0.00

     Writing output data file ZnO.save/

     General routines

     Parallel routines

   This run was terminated on:  23:24: 7  15Jun2022

   JOB DONE.