     Program PWSCF v.6.4.1 starts on 16Jun2022 at 20:12:45

     K-points division:     npool     =       4
     R & G space division:  proc/nbgrp/npool/nimage =      16
     Waiting for input...
     Reading input from standard input
Warning: card &IONS ignored
Warning: card   UPSCALE           = 100.D0, ignored
Warning: card / ignored
Warning: card &CELL ignored
Warning: card   CELL_DYNAMICS     = 'BFGS' ignored
Warning: card   PRESS_CONV_THR    = 0.5D0 ignored
Warning: card   CELL_DOFREE = 'ALL' ignored
Warning: card / ignored

     Current dimensions of program PWSCF are:
     Max number of different atomic species (ntypx) = 10
     Max number of k-points (npk) =  40000
     Max angular momentum in pseudopotentials (lmaxx) =  3

     bravais-lattice index     =            0
     lattice parameter (alat)  =       6.2342  a.u.
     unit-cell volume          =     318.3264 (a.u.)^3
     number of atoms/cell      =            4
     number of atomic types    =            3
     number of electrons       =        42.00
     number of Kohn-Sham states=           21
     kinetic-energy cutoff     =      80.0000  Ry
     charge density cutoff     =     600.0000  Ry
     convergence threshold     =      1.0E-06
     mixing beta               =       0.5000
     number of iterations used =            8  plain     mixing
     Exchange-correlation      = SLA  PW   PSX  PSC ( 1  4 10  8 0 0)

     celldm(1)=   6.234212  celldm(2)=   0.000000  celldm(3)=   0.000000
     celldm(4)=   0.000000  celldm(5)=   0.000000  celldm(6)=   0.000000

     crystal axes: (cart. coord. in units of alat)
               a(1) = (   1.000000  -0.000000  -0.000000 )
               a(2) = (  -0.500000   0.866025   0.000000 )
               a(3) = (  -0.000000   0.000000   1.517041 )

     reciprocal axes: (cart. coord. in units 2 pi/alat)
               b(1) = (  1.000000  0.577351  0.000000 )
               b(2) = (  0.000000  1.154701 -0.000000 )
               b(3) = (  0.000000 -0.000000  0.659178 )

     PseudoPot. # 1 for Mg read from file:
     ./GBRV_PBEsol/mg_pbesol_v1.4.uspp.F.UPF
     MD5 check sum: 4059f37963cf5867752dbf5ab2400678
     Pseudo is Ultrasoft, Zval = 10.0
     Generated by new atomic code, or converted to UPF format
     Using radial grid of  821 points,  7 beta functions with:
                l(1) =   0
                l(2) =   0
                l(3) =   0
                l(4) =   1
                l(5) =   1
                l(6) =   2
                l(7) =   2
     Q(r) pseudized with  8 coefficients,  rinner =    1.200   1.200   1.200
                                                       1.200   1.200

     PseudoPot. # 2 for Zn read from file:
     ./GBRV_PBEsol/zn_pbesol_v1.uspp.F.UPF
     MD5 check sum: 7d8615e52efe7c1e2b1899de8658bae2
     Pseudo is Ultrasoft, Zval = 20.0
     Generated by new atomic code, or converted to UPF format
     Using radial grid of  943 points,  6 beta functions with:
                l(1) =   0
                l(2) =   0
                l(3) =   1
                l(4) =   1
                l(5) =   2
                l(6) =   2
     Q(r) pseudized with  8 coefficients,  rinner =    1.100   1.100   1.100
                                                       1.100   1.100

     PseudoPot. # 3 for O  read from file:
     ./GBRV_PBEsol/o_pbesol_v1.2.uspp.F.UPF
     MD5 check sum: 501638753501ef6325af9037351f7734
     Pseudo is Ultrasoft + core correction, Zval =  6.0
     Generated by new atomic code, or converted to UPF format
     Using radial grid of  737 points,  5 beta functions with:
                l(1) =   0
                l(2) =   0
                l(3) =   1
                l(4) =   1
                l(5) =   2
     Q(r) pseudized with  8 coefficients,  rinner =    0.900   0.900   0.900
                                                       0.900   0.900

     atomic species   valence    mass     pseudopotential
        Mg            10.00    24.30500     Mg( 1.00)
        Zn            20.00    65.38000     Zn( 1.00)
        O              6.00    15.99900     O ( 1.00)

     No symmetry found

                                    s                        frac. trans.

      isym =  1     identity

 cryst.   s( 1) = (     1          0          0      )
                  (     0          1          0      )
                  (     0          0          1      )

 cart.    s( 1) = (  1.0000000 -0.0000000 -0.0000000 )
                  (  0.0000000  1.0000000  0.0000000 )
                  (  0.0000000 -0.0000000  1.0000000 )

   Cartesian axes

     site n.     atom                  positions (alat units)
         1           O   tau(   1) = (   0.5000001   0.2886753   0.0111440  )
         2           O   tau(   2) = (  -0.0000001   0.5773493   0.7696645  )
         3           Zn  tau(   3) = (   0.4999998   0.2886747   0.9162836  )
         4           Mg  tau(   4) = (  -0.0000005   0.5773511   1.6797873  )

   Crystallographic axes

     site n.     atom                  positions (cryst. coord.)
         1           O   tau(   1) = (  0.6666670  0.3333337  0.0073459  )
         2           O   tau(   2) = (  0.3333329  0.6666657  0.5073458  )
         3           Zn  tau(   3) = (  0.6666664  0.3333329  0.6039939  )
         4           Mg  tau(   4) = (  0.3333337  0.6666677  1.1072785  )

     number of k points=   260
                       cart. coord. in units 2pi/alat
        k(    1) = (   0.0000000   0.0000000   0.0000000), wk =   0.0039062
        k(    2) = (   0.0000000  -0.0000000   0.0823972), wk =   0.0078125
        k(    3) = (   0.0000000  -0.0000000   0.1647945), wk =   0.0078125
        k(    4) = (   0.0000000  -0.0000000   0.2471917), wk =   0.0078125
        k(    5) = (  -0.0000000   0.0000000  -0.3295889), wk =   0.0039062
        k(    6) = (   0.0000000   0.1443376  -0.0000000), wk =   0.0078125
        k(    7) = (   0.0000000   0.1443376   0.0823972), wk =   0.0078125
        k(    8) = (   0.0000000   0.1443376   0.1647945), wk =   0.0078125
        k(    9) = (   0.0000000   0.1443376   0.2471917), wk =   0.0078125
        k(   10) = (  -0.0000000   0.1443377  -0.3295889), wk =   0.0078125
        k(   11) = (  -0.0000000   0.1443376  -0.2471917), wk =   0.0078125
        k(   12) = (  -0.0000000   0.1443376  -0.1647945), wk =   0.0078125
        k(   13) = (   0.0000000   0.1443376  -0.0823972), wk =   0.0078125
        k(   14) = (   0.0000000   0.2886752  -0.0000000), wk =   0.0078125
        k(   15) = (   0.0000000   0.2886752   0.0823972), wk =   0.0078125
        k(   16) = (   0.0000001   0.2886752   0.1647944), wk =   0.0078125
        k(   17) = (   0.0000001   0.2886752   0.2471917), wk =   0.0078125
        k(   18) = (  -0.0000000   0.2886753  -0.3295890), wk =   0.0078125
        k(   19) = (   0.0000000   0.2886753  -0.2471917), wk =   0.0078125
        k(   20) = (   0.0000000   0.2886753  -0.1647945), wk =   0.0078125
        k(   21) = (   0.0000000   0.2886753  -0.0823973), wk =   0.0078125
        k(   22) = (   0.0000001   0.4330129  -0.0000000), wk =   0.0078125
        k(   23) = (   0.0000001   0.4330129   0.0823972), wk =   0.0078125
        k(   24) = (   0.0000001   0.4330128   0.1647944), wk =   0.0078125
        k(   25) = (   0.0000001   0.4330128   0.2471917), wk =   0.0078125
        k(   26) = (   0.0000000   0.4330129  -0.3295890), wk =   0.0078125
        k(   27) = (   0.0000000   0.4330129  -0.2471917), wk =   0.0078125
        k(   28) = (   0.0000000   0.4330129  -0.1647945), wk =   0.0078125
        k(   29) = (   0.0000000   0.4330129  -0.0823973), wk =   0.0078125
        k(   30) = (  -0.0000001  -0.5773505   0.0000000), wk =   0.0039062
        k(   31) = (  -0.0000001  -0.5773505   0.0823973), wk =   0.0078125
        k(   32) = (  -0.0000001  -0.5773505   0.1647945), wk =   0.0078125
        k(   33) = (  -0.0000000  -0.5773505   0.2471917), wk =   0.0078125
        k(   34) = (  -0.0000001  -0.5773504  -0.3295889), wk =   0.0039062
        k(   35) = (   0.1250000   0.0721688   0.0000000), wk =   0.0078125
        k(   36) = (   0.1250000   0.0721688   0.0823972), wk =   0.0078125
        k(   37) = (   0.1250000   0.0721688   0.1647945), wk =   0.0078125
        k(   38) = (   0.1250000   0.0721688   0.2471917), wk =   0.0078125
        k(   39) = (   0.1250000   0.0721689  -0.3295889), wk =   0.0078125
        k(   40) = (   0.1250000   0.0721689  -0.2471917), wk =   0.0078125
        k(   41) = (   0.1250000   0.0721688  -0.1647945), wk =   0.0078125
        k(   42) = (   0.1250000   0.0721688  -0.0823972), wk =   0.0078125
        k(   43) = (   0.1250000   0.2165064  -0.0000000), wk =   0.0078125
        k(   44) = (   0.1250000   0.2165064   0.0823972), wk =   0.0078125
        k(   45) = (   0.1250000   0.2165064   0.1647945), wk =   0.0078125
        k(   46) = (   0.1250001   0.2165064   0.2471917), wk =   0.0078125
        k(   47) = (   0.1250000   0.2165065  -0.3295889), wk =   0.0078125
        k(   48) = (   0.1250000   0.2165065  -0.2471917), wk =   0.0078125
        k(   49) = (   0.1250000   0.2165065  -0.1647945), wk =   0.0078125
        k(   50) = (   0.1250000   0.2165065  -0.0823972), wk =   0.0078125
        k(   51) = (   0.1250000   0.3608441  -0.0000000), wk =   0.0078125
        k(   52) = (   0.1250001   0.3608441   0.0823972), wk =   0.0078125
        k(   53) = (   0.1250001   0.3608440   0.1647945), wk =   0.0078125
        k(   54) = (   0.1250001   0.3608440   0.2471917), wk =   0.0078125
        k(   55) = (   0.1250000   0.3608441  -0.3295889), wk =   0.0078125
        k(   56) = (   0.1250000   0.3608441  -0.2471917), wk =   0.0078125
        k(   57) = (   0.1250000   0.3608441  -0.1647945), wk =   0.0078125
        k(   58) = (   0.1250000   0.3608441  -0.0823972), wk =   0.0078125
        k(   59) = (   0.1250001   0.5051817  -0.0000000), wk =   0.0078125
        k(   60) = (   0.1250001   0.5051817   0.0823972), wk =   0.0078125
[...]
        k(  246) = (  -0.5000000  -0.0000000  -0.1647945), wk =   0.0078125
        k(  247) = (  -0.5000000  -0.0000001  -0.0823973), wk =   0.0078125
        k(  248) = (  -0.5000000   0.1443376  -0.0000001), wk =   0.0078125
        k(  249) = (  -0.5000000   0.1443375   0.0823972), wk =   0.0078125
        k(  250) = (  -0.5000000   0.1443375   0.1647944), wk =   0.0078125
        k(  251) = (  -0.5000000   0.1443375   0.2471916), wk =   0.0078125
        k(  252) = (  -0.5000000   0.1443376  -0.3295890), wk =   0.0078125
        k(  253) = (  -0.5000000   0.1443376  -0.2471918), wk =   0.0078125
        k(  254) = (  -0.5000000   0.1443376  -0.1647945), wk =   0.0078125
        k(  255) = (  -0.5000000   0.1443376  -0.0823973), wk =   0.0078125
        k(  256) = (  -0.5000001  -0.8660258   0.0000000), wk =   0.0039062
        k(  257) = (  -0.5000001  -0.8660258   0.0823972), wk =   0.0078125
        k(  258) = (  -0.5000001  -0.8660258   0.1647945), wk =   0.0078125
        k(  259) = (  -0.5000001  -0.8660258   0.2471917), wk =   0.0078125
        k(  260) = (  -0.5000002  -0.8660258  -0.3295889), wk =   0.0039062

                       cryst. coord.
        k(    1) = (   0.0000000   0.0000000   0.0000000), wk =   0.0039062
        k(    2) = (  -0.0000000   0.0000000   0.1250000), wk =   0.0078125
        k(    3) = (  -0.0000000   0.0000000   0.2500000), wk =   0.0078125
        k(    4) = (  -0.0000000   0.0000000   0.3750000), wk =   0.0078125
        k(    5) = (   0.0000000  -0.0000000  -0.5000000), wk =   0.0039062
        k(    6) = (   0.0000000   0.1250000  -0.0000000), wk =   0.0078125
        k(    7) = (   0.0000000   0.1250000   0.1250000), wk =   0.0078125
        k(    8) = (   0.0000000   0.1250000   0.2500000), wk =   0.0078125
        k(    9) = (   0.0000000   0.1250000   0.3750000), wk =   0.0078125
        k(   10) = (   0.0000000   0.1250000  -0.5000000), wk =   0.0078125
        k(   11) = (   0.0000000   0.1250000  -0.3750000), wk =   0.0078125
        k(   12) = (   0.0000000   0.1250000  -0.2500000), wk =   0.0078125
        k(   13) = (   0.0000000   0.1250000  -0.1250000), wk =   0.0078125
        k(   14) = (   0.0000000   0.2500000  -0.0000000), wk =   0.0078125
        k(   15) = (   0.0000000   0.2500000   0.1250000), wk =   0.0078125
        k(   16) = (   0.0000000   0.2500000   0.2500000), wk =   0.0078125
        k(   17) = (  -0.0000000   0.2500000   0.3750000), wk =   0.0078125
        k(   18) = (   0.0000000   0.2500000  -0.5000000), wk =   0.0078125
        k(   19) = (   0.0000000   0.2500000  -0.3750000), wk =   0.0078125
        k(   20) = (   0.0000000   0.2500000  -0.2500000), wk =   0.0078125
        k(   21) = (   0.0000000   0.2500000  -0.1250000), wk =   0.0078125
        k(   22) = (   0.0000000   0.3750000   0.0000000), wk =   0.0078125
        k(   23) = (   0.0000000   0.3750000   0.1250000), wk =   0.0078125
        k(   24) = (   0.0000000   0.3750000   0.2500000), wk =   0.0078125
        k(   25) = (   0.0000000   0.3750000   0.3750000), wk =   0.0078125
        k(   26) = (   0.0000000   0.3750000  -0.5000000), wk =   0.0078125
        k(   27) = (   0.0000000   0.3750000  -0.3750000), wk =   0.0078125
        k(   28) = (   0.0000000   0.3750000  -0.2500000), wk =   0.0078125
        k(   29) = (   0.0000000   0.3750000  -0.1250000), wk =   0.0078125
        k(   30) = (  -0.0000000  -0.5000000   0.0000000), wk =   0.0039062
        k(   31) = (  -0.0000000  -0.5000000   0.1250000), wk =   0.0078125
        k(   32) = (  -0.0000000  -0.5000000   0.2500000), wk =   0.0078125
        k(   33) = (  -0.0000000  -0.5000000   0.3750000), wk =   0.0078125
        k(   34) = (  -0.0000000  -0.5000000  -0.5000000), wk =   0.0039062
        k(   35) = (   0.1250000   0.0000000   0.0000000), wk =   0.0078125
        k(   36) = (   0.1250000   0.0000000   0.1250000), wk =   0.0078125
        k(   37) = (   0.1250000   0.0000000   0.2500000), wk =   0.0078125
        k(   38) = (   0.1250000   0.0000000   0.3750000), wk =   0.0078125
        k(   39) = (   0.1250000   0.0000000  -0.5000000), wk =   0.0078125
        k(   40) = (   0.1250000   0.0000000  -0.3750000), wk =   0.0078125
        k(   41) = (   0.1250000  -0.0000000  -0.2500000), wk =   0.0078125
        k(   42) = (   0.1250000   0.0000000  -0.1250000), wk =   0.0078125
        k(   43) = (   0.1250000   0.1250000   0.0000000), wk =   0.0078125
        k(   44) = (   0.1250000   0.1250000   0.1250000), wk =   0.0078125
        k(   45) = (   0.1250000   0.1250000   0.2500000), wk =   0.0078125
        k(   46) = (   0.1250000   0.1250000   0.3750000), wk =   0.0078125
        k(   47) = (   0.1250000   0.1250000  -0.5000000), wk =   0.0078125
        k(   48) = (   0.1250000   0.1250000  -0.3750000), wk =   0.0078125
        k(   49) = (   0.1250000   0.1250000  -0.2500000), wk =   0.0078125
        k(   50) = (   0.1250000   0.1250000  -0.1250000), wk =   0.0078125
        k(   51) = (   0.1250000   0.2500000   0.0000000), wk =   0.0078125
        k(   52) = (   0.1250000   0.2500000   0.1250000), wk =   0.0078125
        k(   53) = (   0.1250000   0.2500000   0.2500000), wk =   0.0078125
        k(   54) = (   0.1250000   0.2500000   0.3750000), wk =   0.0078125
        k(   55) = (   0.1250000   0.2500000  -0.5000000), wk =   0.0078125
        k(   56) = (   0.1250000   0.2500000  -0.3750000), wk =   0.0078125
        k(   57) = (   0.1250000   0.2500000  -0.2500000), wk =   0.0078125
        k(   58) = (   0.1250000   0.2500000  -0.1250000), wk =   0.0078125
        k(   59) = (   0.1250000   0.3750000   0.0000000), wk =   0.0078125
        k(   60) = (   0.1250000   0.3750000   0.1250000), wk =   0.0078125
[...]
        k(  246) = (  -0.5000000   0.2500000  -0.2500000), wk =   0.0078125
        k(  247) = (  -0.5000000   0.2500000  -0.1250000), wk =   0.0078125
        k(  248) = (  -0.5000000   0.3750000  -0.0000000), wk =   0.0078125
        k(  249) = (  -0.5000000   0.3750000   0.1250000), wk =   0.0078125
        k(  250) = (  -0.5000000   0.3750000   0.2500000), wk =   0.0078125
        k(  251) = (  -0.5000000   0.3750000   0.3750000), wk =   0.0078125
        k(  252) = (  -0.5000000   0.3750000  -0.5000000), wk =   0.0078125
        k(  253) = (  -0.5000000   0.3750000  -0.3750000), wk =   0.0078125
        k(  254) = (  -0.5000000   0.3750000  -0.2500000), wk =   0.0078125
        k(  255) = (  -0.5000000   0.3750000  -0.1250000), wk =   0.0078125
        k(  256) = (  -0.5000000  -0.5000000  -0.0000000), wk =   0.0039062
        k(  257) = (  -0.5000000  -0.5000000   0.1250000), wk =   0.0078125
        k(  258) = (  -0.5000000  -0.5000000   0.2500000), wk =   0.0078125
        k(  259) = (  -0.5000000  -0.5000000   0.3750000), wk =   0.0078125
        k(  260) = (  -0.5000000  -0.5000000  -0.5000000), wk =   0.0039062

     Check: negative core charge=   -0.000003

     Initial potential from superposition of free atoms

     starting charge   41.69964, renormalised to   42.00000
     Starting wfcs are   26 randomized atomic wfcs

     Self-consistent Calculation

     iteration #  1     ecut=    80.00 Ry     beta= 0.50
     Davidson diagonalization with overlap
     ethr =  1.00E-02,  avg # of iterations =  2.0

     total energy              =    -650.62052755 Ry
     Harris-Foulkes estimate   =    -651.46260989 Ry
     estimated scf accuracy    <       1.26224266 Ry

[...]

     total energy              =    -651.12969210 Ry
     Harris-Foulkes estimate   =    -651.12969132 Ry
     estimated scf accuracy    <       0.00000139 Ry

     iteration #  8     ecut=    80.00 Ry     beta= 0.50
     Davidson diagonalization with overlap
     ethr =  3.30E-09,  avg # of iterations =  2.0

     End of self-consistent calculation

          k = 0.0000 0.0000 0.0000 (  3837 PWs)   bands (ev):

  -115.8860 -70.2585 -70.2355 -70.2355 -65.2184 -32.2205 -32.1831 -32.1831
   -10.4652  -9.3690   1.4972   1.4972   2.1286   2.6780   2.7190   2.7190
     5.6374   5.6374   6.7020   6.8793   6.8793

     occupation numbers
     1.0000   1.0000   1.0000   1.0000   1.0000   1.0000   1.0000   1.0000
     1.0000   1.0000   1.0000   1.0000   1.0000   1.0000   1.0000   1.0000
     1.0000   1.0000   1.0000   1.0000   1.0000

[...]

          k =-0.0000 0.0000-0.3296 (  3866 PWs)   bands (ev):

[...]

          k = 0.3750 0.0722-0.0824 (  3848 PWs)   bands (ev):

[...]

          k =-0.5000-0.8660-0.3296 (  3840 PWs)   bands (ev):

  -115.8859 -70.2584 -70.2374 -70.2360 -65.2168 -32.2175 -32.2117 -32.1895
    -9.8258  -9.1622   1.3388   2.0339   2.0681   2.2244   2.7569   2.9009
     3.9889   5.1729   5.3194   5.7227   6.3443

     occupation numbers
     1.0000   1.0000   1.0000   1.0000   1.0000   1.0000   1.0000   1.0000
     1.0000   1.0000   1.0000   1.0000   1.0000   1.0000   1.0000   1.0000
     1.0000   1.0000   1.0000   1.0000   1.0000

     highest occupied level (ev):     6.8793

!    total energy              =    -651.12969229 Ry
     Harris-Foulkes estimate   =    -651.12969226 Ry
     estimated scf accuracy    <       0.00000011 Ry

     The total energy is the sum of the following terms:

     one-electron contribution =    -536.84551623 Ry
     hartree contribution      =     281.71922657 Ry
     xc contribution           =     -73.07100933 Ry
     ewald contribution        =    -322.93239330 Ry

     convergence has been achieved in   8 iterations

     Forces acting on atoms (cartesian axes, Ry/au):

     atom    1 type  3   force =    -0.00000074    0.00000026   -0.00067763
     atom    2 type  3   force =     0.00000001    0.00000104   -0.00952216
     atom    3 type  2   force =     0.00000077   -0.00000051    0.01722088
     atom    4 type  1   force =    -0.00000004   -0.00000079   -0.00702109
     The non-local contrib.  to forces
     atom    1 type  3   force =     0.00000000   -0.00000142   -0.14802854
     atom    2 type  3   force =    -0.00000002    0.00000065    0.05446015
     atom    3 type  2   force =    -0.00000032   -0.00000417   -0.18672504
     atom    4 type  1   force =     0.00000228   -0.00000157   -0.03550414
     The ionic contribution  to forces
     atom    1 type  3   force =    -0.00001384    0.00003168    5.98926820
     atom    2 type  3   force =     0.00000164    0.00000964   -4.94334523
     atom    3 type  2   force =    -0.00000396   -0.00002107   -0.21879909
     atom    4 type  1   force =     0.00001616   -0.00002025   -0.82712388
     The local contribution  to forces
     atom    1 type  3   force =     0.00001293   -0.00003037   -5.84321734
     atom    2 type  3   force =    -0.00000087   -0.00000891    4.88018205
     atom    3 type  2   force =     0.00000372    0.00002451    0.42319322
     atom    4 type  1   force =    -0.00001753    0.00002179    0.85525856
     The core correction contribution to forces
     atom    1 type  3   force =     0.00000001   -0.00000001    0.00143287
     atom    2 type  3   force =     0.00000000   -0.00000001   -0.00096964
     atom    3 type  2   force =     0.00000000    0.00000000    0.00000000
     atom    4 type  1   force =     0.00000000    0.00000000    0.00000000
     The Hubbard contrib.    to forces
     atom    1 type  3   force =     0.00000000    0.00000000    0.00000000
     atom    2 type  3   force =     0.00000000    0.00000000    0.00000000
     atom    3 type  2   force =     0.00000000    0.00000000    0.00000000
     atom    4 type  1   force =     0.00000000    0.00000000    0.00000000
     The SCF correction term to forces
     atom    1 type  3   force =     0.00000000    0.00000000    0.00000000
     atom    2 type  3   force =     0.00000000    0.00000000    0.00000000
     atom    3 type  2   force =     0.00000000    0.00000000    0.00000000
     atom    4 type  1   force =     0.00000000    0.00000000    0.00000000

     Total force =     0.000000     Total SCF correction =     0.000000

     Computing stress (Cartesian axis) and pressure

          total   stress  (Ry/bohr**3)                   (kbar)     P=    3.50
   0.00002496   0.00000000   0.00000001          3.67      0.00      0.00
   0.00000000   0.00002496  -0.00000001          0.00      3.67     -0.00
   0.00000001  -0.00000001   0.00002155          0.00     -0.00      3.17

     kinetic stress (kbar)  26486.02      0.00      0.00
                                0.00  26486.02     -0.00
                                0.00     -0.00  26598.77

     local   stress (kbar) -18164.53     -0.03     -0.00
                               -0.03 -18164.55      0.02
                               -0.00      0.02   2680.45

     nonloc. stress (kbar)   1791.71      0.00     -0.00
                                0.00   1791.71      0.00
                               -0.00      0.00   1740.88

     hartree stress (kbar)  46636.61      0.01      0.00
                                0.01  46636.62     -0.01
                                0.00     -0.01  36914.92

     exc-cor stress (kbar) -10479.58      0.00     -0.00
                                0.00 -10479.58     -0.00
                               -0.00     -0.00 -10482.00

     corecor stress (kbar)   -249.72     -0.00     -0.00
                               -0.00   -249.72      0.00
                               -0.00      0.00   -249.93

     ewald   stress (kbar) -46016.84      0.02      0.01
                                0.02 -46016.83     -0.02
                                0.01     -0.02 -57199.91

     hubbard stress (kbar)      0.00      0.00      0.00
                                0.00      0.00      0.00
                                0.00      0.00      0.00

     london  stress (kbar)      0.00      0.00      0.00
                                0.00      0.00      0.00
                                0.00      0.00      0.00

     DFT-D3  stress (kbar)      0.00      0.00      0.00
                                0.00      0.00      0.00
                                0.00      0.00      0.00

     XDM     stress (kbar)      0.00      0.00      0.00
                                0.00      0.00      0.00
                                0.00      0.00      0.00

     dft-nl  stress (kbar)      0.00      0.00      0.00
                                0.00      0.00      0.00
                                0.00      0.00      0.00

     TS-vdW  stress (kbar)      0.00      0.00      0.00
                                0.00      0.00      0.00
                                0.00      0.00      0.00

     Writing output data file ZnO.save/

     General routines

     Parallel routines

   This run was terminated on:  20:12:55  16Jun2022

   JOB DONE.