     Program PWSCF v.6.4.1 starts on 19Oct2021 at 14:34:46

     K-points division:     npool     =       8
     R & G space division:  proc/nbgrp/npool/nimage =      16
     Waiting for input...
     Reading input from standard input
Warning: card &CELL ignored
Warning: card   CELL_DYNAMICS     = 'BFGS' ignored
Warning: card   PRESS_CONV_THR    = 0.5D0 ignored
Warning: card   CELL_DOFREE = 'ALL' ignored
Warning: card / ignored

     Current dimensions of program PWSCF are:
     Max number of different atomic species (ntypx) = 10
     Max number of k-points (npk) =  40000
     Max angular momentum in pseudopotentials (lmaxx) =  3

     bravais-lattice index     =            0
     lattice parameter (alat)  =      18.4447  a.u.
     unit-cell volume          =    5760.2657 (a.u.)^3
     number of atoms/cell      =           72
     number of atomic types    =            3
     number of electrons       =       776.00
     number of Kohn-Sham states=          466
     kinetic-energy cutoff     =      60.0000  Ry
     charge density cutoff     =     500.0000  Ry
     convergence threshold     =      1.0E-08
     mixing beta               =       0.5000
     number of iterations used =            8  plain     mixing
     Exchange-correlation      = SLA  PW   PSX  PSC ( 1  4 10  8 0 0)
     nstep                     =          200

     celldm(1)=  18.444651  celldm(2)=   0.000000  celldm(3)=   0.000000
     celldm(4)=   0.000000  celldm(5)=   0.000000  celldm(6)=   0.000000

     crystal axes: (cart. coord. in units of alat)
               a(1) = (   1.000000  -0.000668   0.000654 )
               a(2) = (  -0.500577   0.867025  -0.000259 )
               a(3) = (   0.000697   0.000083   1.059175 )

     reciprocal axes: (cart. coord. in units 2 pi/alat)
               b(1) = (  1.000387  0.577573 -0.000703 )
               b(2) = (  0.000771  1.153815 -0.000090 )
               b(3) = ( -0.000617 -0.000074  0.944132 )

     PseudoPot. # 1 for Zn read from file:
     ./GBRV_PBEsol/zn_pbesol_v1.uspp.F.UPF
     MD5 check sum: 7d8615e52efe7c1e2b1899de8658bae2
     Pseudo is Ultrasoft, Zval = 20.0
     Generated by new atomic code, or converted to UPF format
     Using radial grid of  943 points,  6 beta functions with:
                l(1) =   0
                l(2) =   0
                l(3) =   1
                l(4) =   1
                l(5) =   2
                l(6) =   2
     Q(r) pseudized with  8 coefficients,  rinner =    1.100   1.100   1.100
                                                       1.100   1.100

     PseudoPot. # 2 for O  read from file:
     ./GBRV_PBEsol/o_pbesol_v1.2.uspp.F.UPF
     MD5 check sum: 501638753501ef6325af9037351f7734
     Pseudo is Ultrasoft + core correction, Zval =  6.0
     Generated by new atomic code, or converted to UPF format
     Using radial grid of  737 points,  5 beta functions with:
                l(1) =   0
                l(2) =   0
                l(3) =   1
                l(4) =   1
                l(5) =   2
     Q(r) pseudized with  8 coefficients,  rinner =    0.900   0.900   0.900
                                                       0.900   0.900

     PseudoPot. # 3 for Mg read from file:
     ./GBRV_PBEsol/mg_pbesol_v1.4.uspp.F.UPF
     MD5 check sum: 4059f37963cf5867752dbf5ab2400678
     Pseudo is Ultrasoft, Zval = 10.0
     Generated by new atomic code, or converted to UPF format
     Using radial grid of  821 points,  7 beta functions with:
                l(1) =   0
                l(2) =   0
                l(3) =   0
                l(4) =   1
                l(5) =   1
                l(6) =   2
                l(7) =   2
     Q(r) pseudized with  8 coefficients,  rinner =    1.200   1.200   1.200
                                                       1.200   1.200

     atomic species   valence    mass     pseudopotential
        Zn            20.00    65.38000     Zn( 1.00)
        O              6.00    15.99900     O ( 1.00)
        Mg            10.00    24.30500     Mg( 1.00)

     No symmetry found

                                    s                        frac. trans.

      isym =  1     identity

 cryst.   s( 1) = (     1          0          0      )
                  (     0          1          0      )
                  (     0          0          1      )

 cart.    s( 1) = (  1.0000000  0.0000000 -0.0000000 )
                  ( -0.0000000  1.0000000 -0.0000000 )
                  (  0.0000000  0.0000000  1.0000000 )

   Cartesian axes

     site n.     atom                  positions (alat units)
         1           Zn  tau(   1) = (   0.1647137   0.0954737   0.2078346  )
         2           Zn  tau(   2) = (   0.3320773   0.3844035   0.2052144  )
         3           Zn  tau(   3) = (   0.6690734   0.3848176   0.2051875  )
         4           Zn  tau(   4) = (   0.1678497   0.0960914   0.7373010  )
         5           Zn  tau(   5) = (   0.5011910   0.0961261   0.7345501  )
         6           Zn  tau(   6) = (   0.8319623   0.0963060   0.7329186  )
         7           Zn  tau(   7) = (  -0.0002049   0.3867424   0.7341092  )
         8           Zn  tau(   8) = (   0.6662168   0.3851725   0.7353017  )
         9           Zn  tau(   9) = (   0.1654007   0.6740004   0.7349361  )
        10           Zn  tau(  10) = (   0.5002060   0.6718041   0.7327583  )
        11           Zn  tau(  11) = (   0.3320719   0.1938153   0.4716943  )
        12           Zn  tau(  12) = (   0.6671368   0.1931401   0.4693800  )
        13           Zn  tau(  13) = (   0.1670434   0.4804259   0.4701956  )
        14           Zn  tau(  14) = (   0.4994340   0.4798571   0.4687616  )
        15           Zn  tau(  15) = (  -0.0023114   0.7689211   0.4688947  )
        16           Zn  tau(  16) = (  -0.0006412   0.1924420   0.9998984  )
        17           Zn  tau(  17) = (   0.3339111   0.1902784   1.0014148  )
        18           Zn  tau(  18) = (   0.1655093   0.4818465   1.0009925  )
        19           Zn  tau(  19) = (  -0.3345871   0.7696526   0.9996014  )
        20           Zn  tau(  20) = (   0.0006886   0.7716155   1.0015544  )
        21           Mg  tau(  21) = (   0.4982250   0.0971547   0.2092404  )
        22           Mg  tau(  22) = (   0.8355010   0.0954620   0.2077964  )
        23           Mg  tau(  23) = (   0.0019989   0.3827299   0.2067721  )
        24           Mg  tau(  24) = (  -0.1676156   0.6757010   0.2046806  )
        25           Mg  tau(  25) = (   0.1669040   0.6743013   0.2075027  )
        26           Mg  tau(  26) = (   0.4998556   0.6754150   0.2078863  )
        27           Mg  tau(  27) = (   0.3337322   0.3851640   0.7371374  )
        28           Mg  tau(  28) = (  -0.1651774   0.6751286   0.7357022  )
        29           Mg  tau(  29) = (   0.0022710   0.1932797   0.4738226  )
        30           Mg  tau(  30) = (  -0.1667801   0.4822459   0.4699569  )
        31           Mg  tau(  31) = (  -0.3315933   0.7718203   0.4722069  )
        32           Mg  tau(  32) = (   0.3313174   0.7692660   0.4720571  )
        33           Mg  tau(  33) = (   0.6674663   0.1920590   1.0016277  )
        34           Mg  tau(  34) = (  -0.1649246   0.4805428   0.9991649  )
        35           Mg  tau(  35) = (   0.5021917   0.4820670   1.0028028  )
        36           Mg  tau(  36) = (   0.3349273   0.7708518   0.9980077  )
        37           O   tau(  37) = (   0.1654539   0.0953109   0.0034353  )
        38           O   tau(  38) = (   0.5004253   0.0965059   0.0063257  )
        39           O   tau(  39) = (   0.8325416   0.0947784   0.0046002  )
        40           O   tau(  40) = (  -0.0005474   0.3844434   0.0043653  )
        41           O   tau(  41) = (   0.3332827   0.3847995   0.0008489  )
        42           O   tau(  42) = (   0.6677160   0.3845975   0.0014225  )
        43           O   tau(  43) = (  -0.1673190   0.6732007   0.0014182  )
        44           O   tau(  44) = (   0.1676155   0.6748365   0.0041306  )
        45           O   tau(  45) = (   0.4983638   0.6737768   0.0051449  )
        46           O   tau(  46) = (   0.1671259   0.0960510   0.5340739  )
        47           O   tau(  47) = (   0.5000998   0.0958850   0.5305223  )
        48           O   tau(  48) = (   0.8340649   0.0956578   0.5299480  )
        49           O   tau(  49) = (  -0.0007557   0.3856453   0.5305360  )
        50           O   tau(  50) = (   0.3334865   0.3856029   0.5347608  )
        51           O   tau(  51) = (   0.6665863   0.3850745   0.5319472  )
        52           O   tau(  52) = (  -0.1677188   0.6733299   0.5332708  )
        53           O   tau(  53) = (   0.1649320   0.6734078   0.5312598  )
        54           O   tau(  54) = (   0.5000506   0.6739089   0.5290440  )
        55           O   tau(  55) = (  -0.0001941   0.1925304   0.2712897  )
        56           O   tau(  56) = (   0.3316166   0.1928923   0.2685200  )
        57           O   tau(  57) = (   0.6673352   0.1917530   0.2654933  )
        58           O   tau(  58) = (  -0.1642349   0.4827544   0.2666721  )
        59           O   tau(  59) = (   0.1666878   0.4818320   0.2670145  )
        60           O   tau(  60) = (   0.5004226   0.4809828   0.2648523  )
        61           O   tau(  61) = (  -0.3331795   0.7700132   0.2697241  )
        62           O   tau(  62) = (  -0.0006203   0.7706824   0.2657194  )
        63           O   tau(  63) = (   0.3329313   0.7703806   0.2689235  )
        64           O   tau(  64) = (  -0.0003930   0.1931235   0.7956229  )
        65           O   tau(  65) = (   0.3345850   0.1924430   0.7978187  )
        66           O   tau(  66) = (   0.6669548   0.1925657   0.7986498  )
        67           O   tau(  67) = (  -0.1665860   0.4826746   0.7964455  )
        68           O   tau(  68) = (   0.1667355   0.4816417   0.7972881  )
        69           O   tau(  69) = (   0.4998392   0.4811452   0.7997626  )
        70           O   tau(  70) = (  -0.3334919   0.7697052   0.7954608  )
        71           O   tau(  71) = (   0.0004827   0.7714582   0.7978187  )
        72           O   tau(  72) = (   0.3336333   0.7701391   0.7948856  )

   Crystallographic axes

     site n.     atom                  positions (cryst. coord.)
         1           Zn  tau(   1) = (  0.2197743  0.1102672  0.1961145  )
         2           Zn  tau(   2) = (  0.5540827  0.4437679  0.1935158  )
         3           Zn  tau(   3) = (  0.8914483  0.4445055  0.1932825  )
         4           Zn  tau(   4) = (  0.2228959  0.1109344  0.6959985  )
         5           Zn  tau(   5) = (  0.5563881  0.1112318  0.6931955  )
         6           Zn  tau(   6) = (  0.8873925  0.1116946  0.6914510  )
         7           Zn  tau(   7) = (  0.2226508  0.4461625  0.6930671  )
         8           Zn  tau(   8) = (  0.8884227  0.4448649  0.6937817  )
         9           Zn  tau(   9) = (  0.5542325  0.7777326  0.6937241  )
        10           Zn  tau(  10) = (  0.8879003  0.7754569  0.6914616  )
        11           Zn  tau(  11) = (  0.4438112  0.2238403  0.4451222  )
        12           Zn  tau(  12) = (  0.7786174  0.2233198  0.4427304  )
[...]
     atom   14 type  1   force =     0.00000000    0.00000000    0.00000000
     atom   15 type  1   force =     0.00000000    0.00000000    0.00000000
     atom   16 type  1   force =     0.00000000    0.00000000    0.00000000
     atom   17 type  1   force =     0.00000000    0.00000000    0.00000000
     atom   18 type  1   force =     0.00000000    0.00000000    0.00000000
     atom   19 type  1   force =     0.00000000    0.00000000    0.00000000
     atom   20 type  1   force =     0.00000000    0.00000000    0.00000000
     atom   21 type  3   force =     0.00000000    0.00000000    0.00000000
     atom   22 type  3   force =     0.00000000    0.00000000    0.00000000
     atom   23 type  3   force =     0.00000000    0.00000000    0.00000000
     atom   24 type  3   force =     0.00000000    0.00000000    0.00000000
     atom   25 type  3   force =     0.00000000    0.00000000    0.00000000
     atom   26 type  3   force =     0.00000000    0.00000000    0.00000000
     atom   27 type  3   force =     0.00000000    0.00000000    0.00000000
     atom   28 type  3   force =     0.00000000    0.00000000    0.00000000
     atom   29 type  3   force =     0.00000000    0.00000000    0.00000000
     atom   30 type  3   force =     0.00000000    0.00000000    0.00000000
     atom   31 type  3   force =     0.00000000    0.00000000    0.00000000
     atom   32 type  3   force =     0.00000000    0.00000000    0.00000000
     atom   33 type  3   force =     0.00000000    0.00000000    0.00000000
     atom   34 type  3   force =     0.00000000    0.00000000    0.00000000
     atom   35 type  3   force =     0.00000000    0.00000000    0.00000000
     atom   36 type  3   force =     0.00000000    0.00000000    0.00000000
     atom   37 type  2   force =     0.00000000    0.00000000    0.00000000
     atom   38 type  2   force =     0.00000000    0.00000000    0.00000000
     atom   39 type  2   force =     0.00000000    0.00000000    0.00000000
     atom   40 type  2   force =     0.00000000    0.00000000    0.00000000
     atom   41 type  2   force =     0.00000000    0.00000000    0.00000000
     atom   42 type  2   force =     0.00000000    0.00000000    0.00000000
     atom   43 type  2   force =     0.00000000    0.00000000    0.00000000
     atom   44 type  2   force =     0.00000000    0.00000000    0.00000000
     atom   45 type  2   force =     0.00000000    0.00000000    0.00000000
     atom   46 type  2   force =     0.00000000    0.00000000    0.00000000
     atom   47 type  2   force =     0.00000000    0.00000000    0.00000000
     atom   48 type  2   force =     0.00000000    0.00000000    0.00000000
     atom   49 type  2   force =     0.00000000    0.00000000    0.00000000
     atom   50 type  2   force =     0.00000000    0.00000000    0.00000000
     atom   51 type  2   force =     0.00000000    0.00000000    0.00000000
     atom   52 type  2   force =     0.00000000    0.00000000    0.00000000
     atom   53 type  2   force =     0.00000000    0.00000000    0.00000000
     atom   54 type  2   force =     0.00000000    0.00000000    0.00000000
     atom   55 type  2   force =     0.00000000    0.00000000    0.00000000
     atom   56 type  2   force =     0.00000000    0.00000000    0.00000000
     atom   57 type  2   force =     0.00000000    0.00000000    0.00000000
     atom   58 type  2   force =     0.00000000    0.00000000    0.00000000
     atom   59 type  2   force =     0.00000000    0.00000000    0.00000000
     atom   60 type  2   force =     0.00000000    0.00000000    0.00000000
     atom   61 type  2   force =     0.00000000    0.00000000    0.00000000
     atom   62 type  2   force =     0.00000000    0.00000000    0.00000000
     atom   63 type  2   force =     0.00000000    0.00000000    0.00000000
     atom   64 type  2   force =     0.00000000    0.00000000    0.00000000
     atom   65 type  2   force =     0.00000000    0.00000000    0.00000000
     atom   66 type  2   force =     0.00000000    0.00000000    0.00000000
     atom   67 type  2   force =     0.00000000    0.00000000    0.00000000
     atom   68 type  2   force =     0.00000000    0.00000000    0.00000000
     atom   69 type  2   force =     0.00000000    0.00000000    0.00000000
     atom   70 type  2   force =     0.00000000    0.00000000    0.00000000
     atom   71 type  2   force =     0.00000000    0.00000000    0.00000000
     atom   72 type  2   force =     0.00000000    0.00000000    0.00000000
     The SCF correction term to forces
     atom    1 type  1   force =    -0.00000327   -0.00000807   -0.00000122
     atom    2 type  1   force =     0.00000254    0.00000649   -0.00000537
     atom    3 type  1   force =    -0.00000068    0.00000825   -0.00000716
     atom    4 type  1   force =    -0.00000176   -0.00000420    0.00000447
     atom    5 type  1   force =     0.00000245   -0.00000669    0.00001061
     atom    6 type  1   force =     0.00000497   -0.00000079    0.00000933
     atom    7 type  1   force =    -0.00000262    0.00000036    0.00000406
     atom    8 type  1   force =     0.00000231    0.00000118    0.00000459
     atom    9 type  1   force =     0.00000005   -0.00000325    0.00000974
     atom   10 type  1   force =     0.00000252    0.00000219    0.00001098
     atom   11 type  1   force =     0.00000391   -0.00000345   -0.00001392
     atom   12 type  1   force =    -0.00000009   -0.00000373   -0.00000854
     atom   13 type  1   force =     0.00000810    0.00000529   -0.00000190
     atom   14 type  1   force =     0.00000264    0.00000160   -0.00000594
     atom   15 type  1   force =     0.00000481   -0.00000074   -0.00000744
     atom   16 type  1   force =    -0.00000279   -0.00000236    0.00000559
     atom   17 type  1   force =     0.00000094   -0.00000153    0.00000665
     atom   18 type  1   force =     0.00000078    0.00000367    0.00000243
     atom   19 type  1   force =    -0.00000534    0.00000166    0.00001221
     atom   20 type  1   force =     0.00000498    0.00000001    0.00000798
     atom   21 type  3   force =     0.00000059   -0.00000007   -0.00000055
     atom   22 type  3   force =     0.00000096   -0.00000106   -0.00000039
     atom   23 type  3   force =    -0.00000168    0.00000040   -0.00000135
     atom   24 type  3   force =    -0.00000094   -0.00000196   -0.00000133
     atom   25 type  3   force =     0.00000059    0.00000008    0.00000023
     atom   26 type  3   force =    -0.00000054    0.00000228   -0.00000141
     atom   27 type  3   force =    -0.00000191   -0.00000139    0.00000109
     atom   28 type  3   force =     0.00000059    0.00000097    0.00000026
     atom   29 type  3   force =     0.00000029   -0.00000076    0.00000044
     atom   30 type  3   force =    -0.00000119    0.00000073   -0.00000044
     atom   31 type  3   force =    -0.00000011    0.00000051    0.00000051
     atom   32 type  3   force =     0.00000062    0.00000043   -0.00000030
     atom   33 type  3   force =     0.00000166    0.00000058    0.00000079
     atom   34 type  3   force =     0.00000022    0.00000024    0.00000214
     atom   35 type  3   force =     0.00000059   -0.00000060    0.00000008
     atom   36 type  3   force =     0.00000106    0.00000093    0.00000085
     atom   37 type  2   force =    -0.00000082    0.00000077    0.00000018
     atom   38 type  2   force =    -0.00000110    0.00000012    0.00000058
     atom   39 type  2   force =    -0.00000012    0.00000068   -0.00000172
     atom   40 type  2   force =    -0.00000160    0.00000017   -0.00000032
     atom   41 type  2   force =    -0.00000110    0.00000036   -0.00000058
     atom   42 type  2   force =    -0.00000176    0.00000035   -0.00000014
     atom   43 type  2   force =    -0.00000111   -0.00000065   -0.00000098
     atom   44 type  2   force =    -0.00000039    0.00000035   -0.00000150
     atom   45 type  2   force =     0.00000014    0.00000154    0.00000048
     atom   46 type  2   force =    -0.00000019   -0.00000005    0.00000110
     atom   47 type  2   force =     0.00000015   -0.00000140    0.00000011
     atom   48 type  2   force =     0.00000151    0.00000005    0.00000043
     atom   49 type  2   force =     0.00000017   -0.00000134   -0.00000094
     atom   50 type  2   force =    -0.00000038    0.00000001    0.00000107
     atom   51 type  2   force =    -0.00000050   -0.00000001   -0.00000059
     atom   52 type  2   force =    -0.00000129   -0.00000098   -0.00000103
     atom   53 type  2   force =     0.00000137   -0.00000167    0.00000010
     atom   54 type  2   force =     0.00000066   -0.00000007   -0.00000148
     atom   55 type  2   force =     0.00000012   -0.00000046   -0.00000112
     atom   56 type  2   force =    -0.00000012    0.00000012    0.00000066
     atom   57 type  2   force =    -0.00000020   -0.00000049   -0.00000013
     atom   58 type  2   force =    -0.00000142    0.00000033    0.00000064
     atom   59 type  2   force =    -0.00000062    0.00000071    0.00000032
     atom   60 type  2   force =    -0.00000105    0.00000084   -0.00000052
     atom   61 type  2   force =     0.00000075    0.00000178   -0.00000136
     atom   62 type  2   force =    -0.00000017   -0.00000096    0.00000137
     atom   63 type  2   force =    -0.00000095    0.00000015   -0.00000076
     atom   64 type  2   force =     0.00000189    0.00000043    0.00000077
     atom   65 type  2   force =     0.00000151    0.00000053    0.00000028
     atom   66 type  2   force =     0.00000024   -0.00000016   -0.00000080
     atom   67 type  2   force =    -0.00000013   -0.00000084   -0.00000119
     atom   68 type  2   force =    -0.00000039   -0.00000058   -0.00000052
     atom   69 type  2   force =    -0.00000018    0.00000096   -0.00000042
     atom   70 type  2   force =     0.00000105    0.00000124    0.00000025
     atom   71 type  2   force =     0.00000061   -0.00000098   -0.00000053
     atom   72 type  2   force =     0.00000037   -0.00000010   -0.00000143

     Total force =     0.000088     Total SCF correction =     0.000044
     SCF correction compared to forces is large: reduce conv_thr to get better values

     Computing stress (Cartesian axis) and pressure

          total   stress  (Ry/bohr**3)                   (kbar)     P=   -0.00
   0.00000008  -0.00000001   0.00000001          0.01     -0.00      0.00
  -0.00000001   0.00000009   0.00000000         -0.00      0.01      0.00
   0.00000001   0.00000000  -0.00000021          0.00      0.00     -0.03

     kinetic stress (kbar)  27185.82     -0.33      0.86
                               -0.33  27185.93      0.44
                                0.86      0.44  27223.06

     local   stress (kbar) -11799.23   1774.70  -1951.97
                             1774.70 -13296.55    -86.93
                            -1951.97    -86.93 -12004.71

     nonloc. stress (kbar)   1393.52     -0.28     -0.26
                               -0.28   1394.04     -0.26
                               -0.26     -0.26   1376.27

     hartree stress (kbar)  46254.31   -863.65    954.34
                             -863.65  46974.50     43.57
                              954.34     43.57  46331.89

     exc-cor stress (kbar) -10832.80     -0.02      0.01
                               -0.02 -10832.77      0.00
                                0.01      0.00 -10833.31

     corecor stress (kbar)   -248.44      0.00     -0.00
                                0.00   -248.44     -0.00
                               -0.00     -0.00   -248.49

     ewald   stress (kbar) -51953.17   -910.42    997.02
                             -910.42 -51176.70     43.18
                              997.02     43.18 -51844.75

     hubbard stress (kbar)      0.00      0.00      0.00
                                0.00      0.00      0.00
                                0.00      0.00      0.00

     london  stress (kbar)      0.00      0.00      0.00
                                0.00      0.00      0.00
                                0.00      0.00      0.00

     DFT-D3  stress (kbar)      0.00      0.00      0.00
                                0.00      0.00      0.00
                                0.00      0.00      0.00

     XDM     stress (kbar)      0.00      0.00      0.00
                                0.00      0.00      0.00
                                0.00      0.00      0.00

     dft-nl  stress (kbar)      0.00      0.00      0.00
                                0.00      0.00      0.00
                                0.00      0.00      0.00

     TS-vdW  stress (kbar)      0.00      0.00      0.00
                                0.00      0.00      0.00
                                0.00      0.00      0.00

     Message from routine bfgs:
     history already reset at previous step: stopping

     bfgs converged in   4 scf cycles and   3 bfgs steps
     (criteria: energy <  1.0E-07 Ry, force <  1.0E-06 Ry/Bohr)

     End of BFGS Geometry Optimization

     Final energy   =  -12392.2322162719 Ry
Begin final coordinates

ATOMIC_POSITIONS (crystal)
Zn       0.219771557   0.110264991   0.196112826
Zn       0.554085113   0.443769295   0.193514744
Zn       0.891450389   0.444506377   0.193282468
Zn       0.222892490   0.110932959   0.695997210
Zn       0.556388417   0.111234175   0.693195945
Zn       0.887391101   0.111694036   0.691449866
Zn       0.222650662   0.446161591   0.693068708
Zn       0.888423791   0.444865894   0.693782689
Zn       0.554232695   0.777732874   0.693725123
Zn       0.887898600   0.775455444   0.691462269
Zn       0.443809920   0.223839468   0.445120956
Zn       0.778615793   0.223319781   0.442729664
Zn       0.444259105   0.554410497   0.443786225
Zn       0.776450354   0.554009607   0.442228691
Zn       0.441467276   0.887152151   0.442639626
Zn       0.109804443   0.221950935   0.944021025
Zn       0.443237085   0.219712933   0.945247471
Zn       0.443172738   0.555999710   0.944930473
Zn       0.109111297   0.887686080   0.943904152
Zn       0.445649955   0.890210376   0.945541555
Mg       0.554385841   0.112465401   0.197232864
Mg       0.890815494   0.110771648   0.195664650
Mg       0.222908614   0.441580747   0.195188501
Mg       0.222441463   0.779485590   0.193299119
Mg       0.556282285   0.778128700   0.195756629
Mg       0.890004067   0.779668855   0.195911365
Mg       0.555802640   0.444598243   0.695719520
Mg       0.224176402   0.778780130   0.694652794
Mg       0.113572102   0.222969550   0.447336137
Mg       0.111358748   0.556252655   0.443766207
Mg       0.113729338   0.890238962   0.445973576
Mg       0.775419650   0.887802425   0.445423535
Mg       0.777948157   0.222023702   0.945242736
Mg       0.111860538   0.554240913   0.943409553
Mg       0.780108959   0.556510010   0.946431848
Mg       0.779576326   0.889586570   0.941987259
O        0.220565028   0.110097510   0.003132523
O        0.556353667   0.111734497   0.005654391
O        0.887602543   0.109997564   0.003822970
O        0.221495205   0.443575267   0.004092824
O        0.555660694   0.444243446   0.000566605
O        0.890109045   0.444269109   0.000902055
O        0.221439738   0.776620708   0.001393163
O        0.557444364   0.778764274   0.003746738
O        0.887708250   0.777796218   0.004498007
O        0.222291536   0.110906034   0.504125358
O        0.555300696   0.110972909   0.500568073
O        0.889263443   0.110966450   0.499818710
O        0.221610660   0.444916835   0.500869397
O        0.555952914   0.445122770   0.504650051
O        0.888880134   0.444771100   0.501788850
O        0.220740298   0.776721110   0.503532947
O        0.553562824   0.777068025   0.501428379
O        0.889103584   0.777904272   0.499129961
O        0.110815620   0.222119812   0.256119912
O        0.442964706   0.222793293   0.253298607
O        0.778159179   0.221738565   0.250234373
O        0.114341443   0.556858025   0.251837706
O        0.444857080   0.556047850   0.251957783
O        0.778233482   0.555325796   0.249711763
O        0.111239580   0.888169714   0.254804520
O        0.444318079   0.889200709   0.250815371
O        0.777823957   0.889109380   0.253636898
O        0.110588414   0.222755738   0.751159001
O        0.445300098   0.222229158   0.753025272
O        0.777872241   0.222627269   0.753605814
O        0.111570488   0.556717238   0.752017235
O        0.444422614   0.555781389   0.752606953
O        0.777365591   0.555464662   0.754737274
O        0.110378844   0.887767717   0.751168689
O        0.445495014   0.890048737   0.753188529
O        0.778015540   0.888783575   0.750215313
End final coordinates

     Writing output data file ZnO.save/

     General routines

     Parallel routines

   This run was terminated on:  15: 8:35  19Oct2021

   JOB DONE.