     Program PWSCF v.6.4.1 starts on 16Jun2022 at 19:56:47

     K-points division:     npool     =       4
     R & G space division:  proc/nbgrp/npool/nimage =      16
     Waiting for input...
     Reading input from standard input

     Current dimensions of program PWSCF are:
     Max number of different atomic species (ntypx) = 10
     Max number of k-points (npk) =  40000
     Max angular momentum in pseudopotentials (lmaxx) =  3

NOTICE: Bravais lattice has wrong number (10) of symmetries - symmetries are disabled

     bravais-lattice index     =            0
     lattice parameter (alat)  =       6.3955  a.u.
     unit-cell volume          =     310.5467 (a.u.)^3
     number of atoms/cell      =            4
     number of atomic types    =            3
     number of electrons       =        42.00
     number of Kohn-Sham states=           21
     kinetic-energy cutoff     =      80.0000  Ry
     charge density cutoff     =     600.0000  Ry
     convergence threshold     =      1.0E-06
     mixing beta               =       0.5000
     number of iterations used =            8  plain     mixing
     Exchange-correlation      = SLA  PW   PSX  PSC ( 1  4 10  8 0 0)
     nstep                     =          200

     celldm(1)=   6.395473  celldm(2)=   0.000000  celldm(3)=   0.000000
     celldm(4)=   0.000000  celldm(5)=   0.000000  celldm(6)=   0.000000

     crystal axes: (cart. coord. in units of alat)
               a(1) = (   1.000000   0.000000   0.000000 )
               a(2) = (  -0.500000   0.866025  -0.000000 )
               a(3) = (   0.000000  -0.000000   1.370814 )

     reciprocal axes: (cart. coord. in units 2 pi/alat)
               b(1) = (  1.000000  0.577350  0.000000 )
               b(2) = ( -0.000000  1.154701  0.000000 )
               b(3) = ( -0.000000  0.000000  0.729494 )

     PseudoPot. # 1 for Mg read from file:
     ./GBRV_PBEsol/mg_pbesol_v1.4.uspp.F.UPF
     MD5 check sum: 4059f37963cf5867752dbf5ab2400678
     Pseudo is Ultrasoft, Zval = 10.0
     Generated by new atomic code, or converted to UPF format
     Using radial grid of  821 points,  7 beta functions with:
                l(1) =   0
                l(2) =   0
                l(3) =   0
                l(4) =   1
                l(5) =   1
                l(6) =   2
                l(7) =   2
     Q(r) pseudized with  8 coefficients,  rinner =    1.200   1.200   1.200
                                                       1.200   1.200

     PseudoPot. # 2 for Zn read from file:
     ./GBRV_PBEsol/zn_pbesol_v1.uspp.F.UPF
     MD5 check sum: 7d8615e52efe7c1e2b1899de8658bae2
     Pseudo is Ultrasoft, Zval = 20.0
     Generated by new atomic code, or converted to UPF format
     Using radial grid of  943 points,  6 beta functions with:
                l(1) =   0
                l(2) =   0
                l(3) =   1
                l(4) =   1
                l(5) =   2
                l(6) =   2
     Q(r) pseudized with  8 coefficients,  rinner =    1.100   1.100   1.100
                                                       1.100   1.100

     PseudoPot. # 3 for O  read from file:
     ./GBRV_PBEsol/o_pbesol_v1.2.uspp.F.UPF
     MD5 check sum: 501638753501ef6325af9037351f7734
     Pseudo is Ultrasoft + core correction, Zval =  6.0
     Generated by new atomic code, or converted to UPF format
     Using radial grid of  737 points,  5 beta functions with:
                l(1) =   0
                l(2) =   0
                l(3) =   1
                l(4) =   1
                l(5) =   2
     Q(r) pseudized with  8 coefficients,  rinner =    0.900   0.900   0.900
                                                       0.900   0.900

     atomic species   valence    mass     pseudopotential
        Mg            10.00    24.30500     Mg( 1.00)
        Zn            20.00    65.38000     Zn( 1.00)
        O              6.00    15.99900     O ( 1.00)

     No symmetry found

                                    s                        frac. trans.

      isym =  1     identity

 cryst.   s( 1) = (     1          0          0      )
                  (     0          1          0      )
                  (     0          0          1      )

 cart.    s( 1) = (  1.0000000 -0.0000000  0.0000000 )
                  ( -0.0000000  1.0000000 -0.0000000 )
                  (  0.0000000 -0.0000000  1.0000000 )

   Cartesian axes

     site n.     atom                  positions (alat units)
         1           O   tau(   1) = (   0.5000002   0.2886754   0.0100698  )
         2           O   tau(   2) = (   0.0000002   0.5773490   0.6954764  )
         3           Zn  tau(   3) = (   0.5000001   0.2886744   0.7731305  )
         4           Mg  tau(   4) = (  -0.0000000   0.5773505   1.4630398  )

   Crystallographic axes

     site n.     atom                  positions (cryst. coord.)
         1           O   tau(   1) = (  0.6666670  0.3333337  0.0073459  )
         2           O   tau(   2) = (  0.3333329  0.6666657  0.5073458  )
         3           Zn  tau(   3) = (  0.6666664  0.3333329  0.5639939  )
         4           Mg  tau(   4) = (  0.3333337  0.6666677  1.0672785  )

     number of k points=   260
                       cart. coord. in units 2pi/alat
        k(    1) = (   0.0000000   0.0000000   0.0000000), wk =   0.0039062
        k(    2) = (  -0.0000000   0.0000000   0.0911867), wk =   0.0078125
        k(    3) = (  -0.0000000   0.0000000   0.1823734), wk =   0.0078125
        k(    4) = (  -0.0000000   0.0000001   0.2735602), wk =   0.0078125
        k(    5) = (   0.0000000  -0.0000001  -0.3647469), wk =   0.0039062
        k(    6) = (  -0.0000000   0.1443376   0.0000001), wk =   0.0078125
        k(    7) = (  -0.0000000   0.1443376   0.0911868), wk =   0.0078125
        k(    8) = (  -0.0000000   0.1443376   0.1823735), wk =   0.0078125
        k(    9) = (  -0.0000000   0.1443377   0.2735602), wk =   0.0078125
        k(   10) = (  -0.0000000   0.1443375  -0.3647468), wk =   0.0078125
        k(   11) = (  -0.0000000   0.1443376  -0.2735601), wk =   0.0078125
        k(   12) = (  -0.0000000   0.1443376  -0.1823734), wk =   0.0078125
        k(   13) = (  -0.0000000   0.1443376  -0.0911867), wk =   0.0078125
        k(   14) = (  -0.0000000   0.2886752   0.0000001), wk =   0.0078125
        k(   15) = (  -0.0000000   0.2886752   0.0911868), wk =   0.0078125
        k(   16) = (  -0.0000000   0.2886753   0.1823735), wk =   0.0078125
        k(   17) = (  -0.0000000   0.2886753   0.2735603), wk =   0.0078125
        k(   18) = (  -0.0000000   0.2886751  -0.3647468), wk =   0.0078125
        k(   19) = (  -0.0000000   0.2886752  -0.2735601), wk =   0.0078125
        k(   20) = (  -0.0000000   0.2886752  -0.1823733), wk =   0.0078125
        k(   21) = (  -0.0000000   0.2886752  -0.0911866), wk =   0.0078125
        k(   22) = (  -0.0000000   0.4330128   0.0000002), wk =   0.0078125
        k(   23) = (  -0.0000000   0.4330128   0.0911869), wk =   0.0078125
        k(   24) = (  -0.0000000   0.4330129   0.1823736), wk =   0.0078125
        k(   25) = (  -0.0000000   0.4330129   0.2735603), wk =   0.0078125
        k(   26) = (  -0.0000000   0.4330127  -0.3647467), wk =   0.0078125
        k(   27) = (  -0.0000000   0.4330128  -0.2735600), wk =   0.0078125
        k(   28) = (  -0.0000000   0.4330128  -0.1823733), wk =   0.0078125
        k(   29) = (  -0.0000000   0.4330128  -0.0911866), wk =   0.0078125
        k(   30) = (   0.0000000  -0.5773504  -0.0000002), wk =   0.0039062
        k(   31) = (   0.0000000  -0.5773504   0.0911865), wk =   0.0078125
        k(   32) = (   0.0000000  -0.5773504   0.1823732), wk =   0.0078125
        k(   33) = (   0.0000000  -0.5773504   0.2735600), wk =   0.0078125
        k(   34) = (   0.0000000  -0.5773505  -0.3647471), wk =   0.0039062
        k(   35) = (   0.1250000   0.0721688   0.0000000), wk =   0.0078125
        k(   36) = (   0.1250000   0.0721688   0.0911867), wk =   0.0078125
        k(   37) = (   0.1250000   0.0721688   0.1823735), wk =   0.0078125
        k(   38) = (   0.1250000   0.0721689   0.2735602), wk =   0.0078125
        k(   39) = (   0.1250000   0.0721687  -0.3647469), wk =   0.0078125
        k(   40) = (   0.1250000   0.0721687  -0.2735601), wk =   0.0078125
        k(   41) = (   0.1250000   0.0721688  -0.1823734), wk =   0.0078125
        k(   42) = (   0.1250000   0.0721688  -0.0911867), wk =   0.0078125
        k(   43) = (   0.1250000   0.2165064   0.0000001), wk =   0.0078125
        k(   44) = (   0.1250000   0.2165064   0.0911868), wk =   0.0078125
        k(   45) = (   0.1250000   0.2165064   0.1823735), wk =   0.0078125
        k(   46) = (   0.1250000   0.2165065   0.2735602), wk =   0.0078125
        k(   47) = (   0.1250000   0.2165063  -0.3647468), wk =   0.0078125
        k(   48) = (   0.1250000   0.2165063  -0.2735601), wk =   0.0078125
        k(   49) = (   0.1250000   0.2165064  -0.1823734), wk =   0.0078125
        k(   50) = (   0.1250000   0.2165064  -0.0911867), wk =   0.0078125
        k(   51) = (   0.1250000   0.3608440   0.0000001), wk =   0.0078125
        k(   52) = (   0.1250000   0.3608440   0.0911868), wk =   0.0078125
        k(   53) = (   0.1250000   0.3608441   0.1823736), wk =   0.0078125
        k(   54) = (   0.1250000   0.3608441   0.2735603), wk =   0.0078125
        k(   55) = (   0.1250000   0.3608439  -0.3647468), wk =   0.0078125
        k(   56) = (   0.1250000   0.3608440  -0.2735600), wk =   0.0078125
        k(   57) = (   0.1250000   0.3608440  -0.1823733), wk =   0.0078125
        k(   58) = (   0.1250000   0.3608440  -0.0911866), wk =   0.0078125
        k(   59) = (   0.1250000   0.5051816   0.0000002), wk =   0.0078125
        k(   60) = (   0.1250000   0.5051816   0.0911869), wk =   0.0078125
[...]
        k(  246) = (  -0.5000000  -0.0000000  -0.1823734), wk =   0.0078125
        k(  247) = (  -0.5000000   0.0000000  -0.0911867), wk =   0.0078125
        k(  248) = (  -0.5000000   0.1443376   0.0000001), wk =   0.0078125
        k(  249) = (  -0.5000000   0.1443376   0.0911868), wk =   0.0078125
        k(  250) = (  -0.5000000   0.1443377   0.1823735), wk =   0.0078125
        k(  251) = (  -0.5000000   0.1443377   0.2735603), wk =   0.0078125
        k(  252) = (  -0.5000000   0.1443376  -0.3647468), wk =   0.0078125
        k(  253) = (  -0.5000000   0.1443376  -0.2735601), wk =   0.0078125
        k(  254) = (  -0.5000000   0.1443376  -0.1823733), wk =   0.0078125
        k(  255) = (  -0.5000000   0.1443376  -0.0911866), wk =   0.0078125
        k(  256) = (  -0.5000000  -0.8660256  -0.0000003), wk =   0.0039062
        k(  257) = (  -0.5000000  -0.8660256   0.0911865), wk =   0.0078125
        k(  258) = (  -0.5000000  -0.8660256   0.1823732), wk =   0.0078125
        k(  259) = (  -0.5000000  -0.8660256   0.2735599), wk =   0.0078125
        k(  260) = (  -0.5000000  -0.8660257  -0.3647471), wk =   0.0039062

                       cryst. coord.
        k(    1) = (   0.0000000   0.0000000   0.0000000), wk =   0.0039062
        k(    2) = (   0.0000000  -0.0000000   0.1250000), wk =   0.0078125
[...]
        k(   23) = (   0.0000000   0.4329916   0.0912035), wk =   0.0078125
        k(   24) = (   0.0000000   0.4329916   0.1824070), wk =   0.0078125
        k(   25) = (   0.0000000   0.4329915   0.2736105), wk =   0.0078125
        k(   26) = (  -0.0000000   0.4329917  -0.3648141), wk =   0.0078125
        k(   27) = (  -0.0000000   0.4329917  -0.2736106), wk =   0.0078125
        k(   28) = (  -0.0000000   0.4329917  -0.1824071), wk =   0.0078125
        k(   29) = (   0.0000000   0.4329916  -0.0912036), wk =   0.0078125
        k(   30) = (  -0.0000000  -0.5773222   0.0000001), wk =   0.0039062
        k(   31) = (  -0.0000000  -0.5773222   0.0912036), wk =   0.0078125
        k(   32) = (  -0.0000000  -0.5773222   0.1824071), wk =   0.0078125
        k(   33) = (   0.0000000  -0.5773222   0.2736106), wk =   0.0078125
        k(   34) = (  -0.0000000  -0.5773221  -0.3648140), wk =   0.0039062
        k(   35) = (   0.1249939   0.0721653  -0.0000000), wk =   0.0078125
        k(   36) = (   0.1249939   0.0721652   0.0912035), wk =   0.0078125
        k(   37) = (   0.1249939   0.0721652   0.1824070), wk =   0.0078125
        k(   38) = (   0.1249939   0.0721652   0.2736106), wk =   0.0078125
        k(   39) = (   0.1249939   0.0721654  -0.3648141), wk =   0.0078125
        k(   40) = (   0.1249939   0.0721653  -0.2736106), wk =   0.0078125
        k(   41) = (   0.1249939   0.0721653  -0.1824071), wk =   0.0078125
        k(   42) = (   0.1249939   0.0721653  -0.0912035), wk =   0.0078125
        k(   43) = (   0.1249939   0.2164958  -0.0000000), wk =   0.0078125
        k(   44) = (   0.1249939   0.2164958   0.0912035), wk =   0.0078125
        k(   45) = (   0.1249939   0.2164958   0.1824070), wk =   0.0078125
        k(   46) = (   0.1249939   0.2164957   0.2736105), wk =   0.0078125
        k(   47) = (   0.1249939   0.2164959  -0.3648141), wk =   0.0078125
        k(   48) = (   0.1249939   0.2164959  -0.2736106), wk =   0.0078125
        k(   49) = (   0.1249939   0.2164959  -0.1824071), wk =   0.0078125
        k(   50) = (   0.1249939   0.2164958  -0.0912035), wk =   0.0078125
        k(   51) = (   0.1249939   0.3608264  -0.0000000), wk =   0.0078125
        k(   52) = (   0.1249939   0.3608263   0.0912035), wk =   0.0078125
        k(   53) = (   0.1249939   0.3608263   0.1824070), wk =   0.0078125
        k(   54) = (   0.1249939   0.3608263   0.2736105), wk =   0.0078125
        k(   55) = (   0.1249939   0.3608265  -0.3648141), wk =   0.0078125
        k(   56) = (   0.1249939   0.3608264  -0.2736106), wk =   0.0078125
        k(   57) = (   0.1249939   0.3608264  -0.1824071), wk =   0.0078125
        k(   58) = (   0.1249939   0.3608264  -0.0912036), wk =   0.0078125
        k(   59) = (   0.1249939   0.5051569  -0.0000001), wk =   0.0078125
        k(   60) = (   0.1249939   0.5051569   0.0912035), wk =   0.0078125
[...]
        k(  246) = (  -0.4999757   0.0000000  -0.1824070), wk =   0.0078125
        k(  247) = (  -0.4999757   0.0000000  -0.0912035), wk =   0.0078125
        k(  248) = (  -0.4999757   0.1443305  -0.0000000), wk =   0.0078125
        k(  249) = (  -0.4999757   0.1443305   0.0912035), wk =   0.0078125
        k(  250) = (  -0.4999756   0.1443305   0.1824070), wk =   0.0078125
        k(  251) = (  -0.4999756   0.1443305   0.2736105), wk =   0.0078125
        k(  252) = (  -0.4999757   0.1443306  -0.3648141), wk =   0.0078125
        k(  253) = (  -0.4999757   0.1443306  -0.2736106), wk =   0.0078125
        k(  254) = (  -0.4999757   0.1443306  -0.1824071), wk =   0.0078125
        k(  255) = (  -0.4999757   0.1443305  -0.0912035), wk =   0.0078125
        k(  256) = (  -0.4999757  -0.8659833   0.0000001), wk =   0.0039062
        k(  257) = (  -0.4999757  -0.8659833   0.0912036), wk =   0.0078125
        k(  258) = (  -0.4999757  -0.8659833   0.1824072), wk =   0.0078125
        k(  259) = (  -0.4999757  -0.8659833   0.2736107), wk =   0.0078125
        k(  260) = (  -0.4999757  -0.8659832  -0.3648140), wk =   0.0039062

                       cryst. coord.
        k(    1) = (   0.0000000   0.0000000   0.0000000), wk =   0.0039062
        k(    2) = (   0.0000000  -0.0000000   0.1250000), wk =   0.0078125
        k(    3) = (   0.0000000  -0.0000000   0.2500000), wk =   0.0078125
        k(    4) = (   0.0000000  -0.0000000   0.3750000), wk =   0.0078125
        k(    5) = (  -0.0000000   0.0000000  -0.5000000), wk =   0.0039062
        k(    6) = (   0.0000000   0.1250000  -0.0000000), wk =   0.0078125
        k(    7) = (   0.0000000   0.1250000   0.1250000), wk =   0.0078125
        k(    8) = (   0.0000000   0.1250000   0.2500000), wk =   0.0078125
        k(    9) = (   0.0000000   0.1250000   0.3750000), wk =   0.0078125
        k(   10) = (  -0.0000000   0.1250000  -0.5000000), wk =   0.0078125
        k(   11) = (  -0.0000000   0.1250000  -0.3750000), wk =   0.0078125
        k(   12) = (  -0.0000000   0.1250000  -0.2500000), wk =   0.0078125
        k(   13) = (   0.0000000   0.1250000  -0.1250000), wk =   0.0078125
        k(   14) = (   0.0000000   0.2500000  -0.0000000), wk =   0.0078125
        k(   15) = (   0.0000000   0.2500000   0.1250000), wk =   0.0078125
        k(   16) = (   0.0000000   0.2500000   0.2500000), wk =   0.0078125
        k(   17) = (   0.0000000   0.2500000   0.3750000), wk =   0.0078125
        k(   18) = (  -0.0000000   0.2500000  -0.5000000), wk =   0.0078125
        k(   19) = (  -0.0000000   0.2500000  -0.3750000), wk =   0.0078125
        k(   20) = (   0.0000000   0.2500000  -0.2500000), wk =   0.0078125
        k(   21) = (   0.0000000   0.2500000  -0.1250000), wk =   0.0078125
        k(   22) = (   0.0000000   0.3750000  -0.0000000), wk =   0.0078125
        k(   23) = (   0.0000000   0.3750000   0.1250000), wk =   0.0078125
        k(   24) = (   0.0000000   0.3750000   0.2500000), wk =   0.0078125
        k(   25) = (   0.0000000   0.3750000   0.3750000), wk =   0.0078125
        k(   26) = (  -0.0000000   0.3750000  -0.5000000), wk =   0.0078125
        k(   27) = (  -0.0000000   0.3750000  -0.3750000), wk =   0.0078125
        k(   28) = (   0.0000000   0.3750000  -0.2500000), wk =   0.0078125
        k(   29) = (   0.0000000   0.3750000  -0.1250000), wk =   0.0078125
        k(   30) = (  -0.0000000  -0.5000000   0.0000000), wk =   0.0039062
        k(   31) = (  -0.0000000  -0.5000000   0.1250000), wk =   0.0078125
        k(   32) = (  -0.0000000  -0.5000000   0.2500000), wk =   0.0078125
        k(   33) = (  -0.0000000  -0.5000000   0.3750000), wk =   0.0078125
        k(   34) = (  -0.0000000  -0.5000000  -0.5000000), wk =   0.0039062
        k(   35) = (   0.1250000   0.0000000  -0.0000000), wk =   0.0078125
        k(   36) = (   0.1250000   0.0000000   0.1250000), wk =   0.0078125
        k(   37) = (   0.1250000  -0.0000000   0.2500000), wk =   0.0078125
        k(   38) = (   0.1250000   0.0000000   0.3750000), wk =   0.0078125
        k(   39) = (   0.1250000  -0.0000000  -0.5000000), wk =   0.0078125
        k(   40) = (   0.1250000   0.0000000  -0.3750000), wk =   0.0078125
        k(   41) = (   0.1250000   0.0000000  -0.2500000), wk =   0.0078125
        k(   42) = (   0.1250000  -0.0000000  -0.1250000), wk =   0.0078125
        k(   43) = (   0.1250000   0.1250000  -0.0000000), wk =   0.0078125
        k(   44) = (   0.1250000   0.1250000   0.1250000), wk =   0.0078125
        k(   45) = (   0.1250000   0.1250000   0.2500000), wk =   0.0078125
        k(   46) = (   0.1250000   0.1250000   0.3750000), wk =   0.0078125
        k(   47) = (   0.1250000   0.1250000  -0.5000000), wk =   0.0078125
        k(   48) = (   0.1250000   0.1250000  -0.3750000), wk =   0.0078125
        k(   49) = (   0.1250000   0.1250000  -0.2500000), wk =   0.0078125
        k(   50) = (   0.1250000   0.1250000  -0.1250000), wk =   0.0078125
        k(   51) = (   0.1250000   0.2500000  -0.0000000), wk =   0.0078125
        k(   52) = (   0.1250000   0.2500000   0.1250000), wk =   0.0078125
        k(   53) = (   0.1250000   0.2500000   0.2500000), wk =   0.0078125
        k(   54) = (   0.1250000   0.2500000   0.3750000), wk =   0.0078125
        k(   55) = (   0.1250000   0.2500000  -0.5000000), wk =   0.0078125
        k(   56) = (   0.1250000   0.2500000  -0.3750000), wk =   0.0078125
        k(   57) = (   0.1250000   0.2500000  -0.2500000), wk =   0.0078125
        k(   58) = (   0.1250000   0.2500000  -0.1250000), wk =   0.0078125
        k(   59) = (   0.1250000   0.3750000  -0.0000000), wk =   0.0078125
        k(   60) = (   0.1250000   0.3750000   0.1250000), wk =   0.0078125
[...]
        k(  246) = (  -0.5000000   0.2500000  -0.2500000), wk =   0.0078125
        k(  247) = (  -0.5000000   0.2500000  -0.1250000), wk =   0.0078125
        k(  248) = (  -0.5000000   0.3750000  -0.0000000), wk =   0.0078125
        k(  249) = (  -0.5000000   0.3750000   0.1250000), wk =   0.0078125
        k(  250) = (  -0.5000000   0.3750000   0.2500000), wk =   0.0078125
        k(  251) = (  -0.5000000   0.3750000   0.3750000), wk =   0.0078125
        k(  252) = (  -0.5000000   0.3750000  -0.5000000), wk =   0.0078125
        k(  253) = (  -0.5000000   0.3750000  -0.3750000), wk =   0.0078125
        k(  254) = (  -0.5000000   0.3750000  -0.2500000), wk =   0.0078125
        k(  255) = (  -0.5000000   0.3750000  -0.1250000), wk =   0.0078125
        k(  256) = (  -0.5000000  -0.5000000   0.0000000), wk =   0.0039062
        k(  257) = (  -0.5000000  -0.5000000   0.1250000), wk =   0.0078125
        k(  258) = (  -0.5000000  -0.5000000   0.2500000), wk =   0.0078125
        k(  259) = (  -0.5000000  -0.5000000   0.3750000), wk =   0.0078125
        k(  260) = (  -0.5000000  -0.5000000  -0.5000000), wk =   0.0039062

     Check: negative core charge=   -0.000003

     Initial potential from superposition of free atoms

     starting charge   41.69964, renormalised to   42.00000
     Starting wfcs are   26 randomized atomic wfcs

     Self-consistent Calculation

[...]

     total energy              =    -651.12574245 Ry
     Harris-Foulkes estimate   =    -651.12574245 Ry
     estimated scf accuracy    <       0.00000002 Ry

     iteration # 10     ecut=    80.00 Ry     beta= 0.50
     Davidson diagonalization with overlap
     ethr =  4.38E-11,  avg # of iterations =  2.1

     End of self-consistent calculation

[...]

          k = 0.3750 0.0722-0.0912 (  3759 PWs)   bands (ev):

[...]

          k =-0.5000-0.8660-0.3648 (  3764 PWs)   bands (ev):

  -115.6070 -69.9792 -69.9593 -69.9583 -64.9504 -31.9561 -31.9373 -31.9193
    -9.5048  -8.8399   1.6697   2.0888   2.3307   2.4112   2.9221   3.2226
     4.3827   5.3858   5.8440   5.8633   7.0914

     occupation numbers
     1.0000   1.0000   1.0000   1.0000   1.0000   1.0000   1.0000   1.0000
     1.0000   1.0000   1.0000   1.0000   1.0000   1.0000   1.0000   1.0000
     1.0000   1.0000   1.0000   1.0000   1.0000

     highest occupied level (ev):     7.2862

!    total energy              =    -651.12574246 Ry
     Harris-Foulkes estimate   =    -651.12574246 Ry
     estimated scf accuracy    <          1.5E-10 Ry

     The total energy is the sum of the following terms:

     one-electron contribution =    -528.44749981 Ry
     hartree contribution      =     277.97616485 Ry
     xc contribution           =     -73.08308038 Ry
     ewald contribution        =    -327.57132711 Ry

     convergence has been achieved in  10 iterations

     Forces acting on atoms (cartesian axes, Ry/au):

     atom    1 type  3   force =    -0.00000024    0.00000048    0.00093788
     atom    2 type  3   force =    -0.00000027    0.00000097   -0.00362808
     atom    3 type  2   force =     0.00000025   -0.00000057    0.00933878
     atom    4 type  1   force =     0.00000026   -0.00000088   -0.00664859
     The non-local contrib.  to forces
     atom    1 type  3   force =    -0.00000010   -0.00000154   -0.16001024
     atom    2 type  3   force =     0.00000008    0.00000059   -0.02826105
     atom    3 type  2   force =     0.00000046   -0.00000602   -0.29202006
     atom    4 type  1   force =     0.00000142   -0.00000162   -0.11196580
     The ionic contribution  to forces
     atom    1 type  3   force =    -0.00000960    0.00002819    4.15532734
     atom    2 type  3   force =    -0.00000183    0.00002419   -1.78302419
     atom    3 type  2   force =    -0.00000071   -0.00003538   -1.16105605
     atom    4 type  1   force =     0.00001213   -0.00001700   -1.21124709
     The local contribution  to forces
     atom    1 type  3   force =     0.00000946   -0.00002618   -3.99555999
     atom    2 type  3   force =     0.00000147   -0.00002379    1.80800676
     atom    3 type  2   force =     0.00000050    0.00004081    1.46243047
     atom    4 type  1   force =    -0.00001330    0.00001775    1.31656594
     The core correction contribution to forces
     atom    1 type  3   force =     0.00000001    0.00000000    0.00117749
     atom    2 type  3   force =    -0.00000000   -0.00000001   -0.00034988
     atom    3 type  2   force =     0.00000000    0.00000000    0.00000000
     atom    4 type  1   force =     0.00000000    0.00000000    0.00000000
     The Hubbard contrib.    to forces
     atom    1 type  3   force =     0.00000000    0.00000000    0.00000000
     atom    2 type  3   force =     0.00000000    0.00000000    0.00000000
     atom    3 type  2   force =     0.00000000    0.00000000    0.00000000
     atom    4 type  1   force =     0.00000000    0.00000000    0.00000000
     The SCF correction term to forces
     atom    1 type  3   force =     0.00000000    0.00000000    0.00000000
     atom    2 type  3   force =     0.00000000    0.00000000    0.00000000
     atom    3 type  2   force =     0.00000000    0.00000000    0.00000000
     atom    4 type  1   force =     0.00000000    0.00000000    0.00000000

     Total force =     0.000000     Total SCF correction =     0.000000

     Computing stress (Cartesian axis) and pressure

          total   stress  (Ry/bohr**3)                   (kbar)     P=   -0.09
   0.00000044   0.00000000   0.00000000          0.06      0.00      0.00
   0.00000000   0.00000043  -0.00000002          0.00      0.06     -0.00
   0.00000000  -0.00000002  -0.00000261          0.00     -0.00     -0.38

     kinetic stress (kbar)  27137.36      0.00      0.00
                                0.00  27137.36     -0.00
                                0.00     -0.00  27312.50

     local   stress (kbar) -13466.97     -0.02     -0.01
                               -0.02 -13466.97      0.00
                               -0.01      0.00  -3583.10

     nonloc. stress (kbar)   1834.15      0.00     -0.00
                                0.00   1834.15      0.00
                               -0.00      0.00   1760.81

     hartree stress (kbar)  45387.48      0.01      0.00
                                0.01  45387.48      0.00
                                0.00      0.00  40912.93

     exc-cor stress (kbar) -10744.40      0.00     -0.00
                                0.00 -10744.40      0.00
                               -0.00      0.00 -10747.41

     corecor stress (kbar)   -255.96     -0.00     -0.00
                               -0.00   -255.96      0.00
                               -0.00      0.00   -256.27

     ewald   stress (kbar) -49891.58      0.01      0.01
                                0.01 -49891.58     -0.01
                                0.01     -0.01 -55399.84

     hubbard stress (kbar)      0.00      0.00      0.00
                                0.00      0.00      0.00
                                0.00      0.00      0.00

     london  stress (kbar)      0.00      0.00      0.00
                                0.00      0.00      0.00
                                0.00      0.00      0.00

     DFT-D3  stress (kbar)      0.00      0.00      0.00
                                0.00      0.00      0.00
                                0.00      0.00      0.00

     XDM     stress (kbar)      0.00      0.00      0.00
                                0.00      0.00      0.00
                                0.00      0.00      0.00

     dft-nl  stress (kbar)      0.00      0.00      0.00
                                0.00      0.00      0.00
                                0.00      0.00      0.00

     TS-vdW  stress (kbar)      0.00      0.00      0.00
                                0.00      0.00      0.00
                                0.00      0.00      0.00

     Writing output data file ZnO.save/

     General routines

     Parallel routines

   This run was terminated on:  19:57:56  16Jun2022

   JOB DONE.