     Program PWSCF v.6.4.1 starts on  8Jun2022 at 16:33:33

     K-points division:     npool     =       4
     R & G space division:  proc/nbgrp/npool/nimage =      16
     Waiting for input...
     Reading input from standard input

     Current dimensions of program PWSCF are:
     Max number of different atomic species (ntypx) = 10
     Max number of k-points (npk) =  40000
     Max angular momentum in pseudopotentials (lmaxx) =  3

     bravais-lattice index     =            0
     lattice parameter (alat)  =       6.1103  a.u.
     unit-cell volume          =     318.8455 (a.u.)^3
     number of atoms/cell      =            4
     number of atomic types    =            2
     number of electrons       =        32.00
     number of Kohn-Sham states=           16
     kinetic-energy cutoff     =      80.0000  Ry
     charge density cutoff     =     600.0000  Ry
     convergence threshold     =      1.0E-06
     mixing beta               =       0.5000
     number of iterations used =            8  plain     mixing
     Exchange-correlation      = SLA  PW   PSX  PSC ( 1  4 10  8 0 0)
     nstep                     =          200

     celldm(1)=   6.110292  celldm(2)=   0.000000  celldm(3)=   0.000000
     celldm(4)=   0.000000  celldm(5)=   0.000000  celldm(6)=   0.000000

     crystal axes: (cart. coord. in units of alat)
               a(1) = (   1.000000  -0.000000  -0.000000 )
               a(2) = (  -0.500000   0.866025  -0.000000 )
               a(3) = (  -0.000000  -0.000000   1.613853 )

     reciprocal axes: (cart. coord. in units 2 pi/alat)
               b(1) = (  1.000000  0.577350  0.000000 )
               b(2) = (  0.000000  1.154701  0.000000 )
               b(3) = (  0.000000  0.000000  0.619635 )

     PseudoPot. # 1 for Mg read from file:
     ./GBRV_PBEsol/mg_pbesol_v1.4.uspp.F.UPF
     MD5 check sum: 4059f37963cf5867752dbf5ab2400678
     Pseudo is Ultrasoft, Zval = 10.0
     Generated by new atomic code, or converted to UPF format
     Using radial grid of  821 points,  7 beta functions with:
                l(1) =   0
                l(2) =   0
                l(3) =   0
                l(4) =   1
                l(5) =   1
                l(6) =   2
                l(7) =   2
     Q(r) pseudized with  8 coefficients,  rinner =    1.200   1.200   1.200
                                                       1.200   1.200

     PseudoPot. # 2 for O  read from file:
     ./GBRV_PBEsol/o_pbesol_v1.2.uspp.F.UPF
     MD5 check sum: 501638753501ef6325af9037351f7734
     Pseudo is Ultrasoft + core correction, Zval =  6.0
     Generated by new atomic code, or converted to UPF format
     Using radial grid of  737 points,  5 beta functions with:
                l(1) =   0
                l(2) =   0
                l(3) =   1
                l(4) =   1
                l(5) =   2
     Q(r) pseudized with  8 coefficients,  rinner =    0.900   0.900   0.900
                                                       0.900   0.900

     atomic species   valence    mass     pseudopotential
        Mg            10.00    24.30500     Mg( 1.00)
        O              6.00    15.99900     O ( 1.00)

     No symmetry found

                                    s                        frac. trans.

      isym =  1     identity

 cryst.   s( 1) = (     1          0          0      )
                  (     0          1          0      )
                  (     0          0          1      )

 cart.    s( 1) = (  1.0000000  0.0000000 -0.0000000 )
                  ( -0.0000000  1.0000000  0.0000000 )
                  ( -0.0000000 -0.0000000  1.0000000 )

   Cartesian axes

     site n.     atom                  positions (alat units)
         1           O   tau(   1) = (   0.5000001   0.2886754   0.0118550  )
         2           O   tau(   2) = (  -0.0000000   0.5773492   0.8187812  )
         3           Mg  tau(   3) = (   0.4999999   0.2886746   0.8978733  )
         4           Mg  tau(   4) = (  -0.0000004   0.5773508   1.7047994  )

   Crystallographic axes

     site n.     atom                  positions (cryst. coord.)
         1           O   tau(   1) = (  0.6666670  0.3333337  0.0073459  )
         2           O   tau(   2) = (  0.3333329  0.6666657  0.5073458  )
         3           Mg  tau(   3) = (  0.6666664  0.3333329  0.5563540  )
         4           Mg  tau(   4) = (  0.3333336  0.6666677  1.0563539  )

     number of k points=   260
                       cart. coord. in units 2pi/alat
        k(    1) = (   0.0000000   0.0000000   0.0000000), wk =   0.0039062
        k(    2) = (   0.0000000   0.0000000   0.0774544), wk =   0.0078125
        k(    3) = (   0.0000000   0.0000000   0.1549088), wk =   0.0078125
        k(    4) = (   0.0000000   0.0000000   0.2323632), wk =   0.0078125
        k(    5) = (  -0.0000000  -0.0000000  -0.3098176), wk =   0.0039062
        k(    6) = (   0.0000000   0.1443376   0.0000000), wk =   0.0078125
        k(    7) = (   0.0000000   0.1443376   0.0774544), wk =   0.0078125
        k(    8) = (   0.0000000   0.1443376   0.1549088), wk =   0.0078125
        k(    9) = (   0.0000000   0.1443376   0.2323633), wk =   0.0078125
        k(   10) = (  -0.0000000   0.1443375  -0.3098176), wk =   0.0078125
        k(   11) = (  -0.0000000   0.1443376  -0.2323632), wk =   0.0078125
        k(   12) = (  -0.0000000   0.1443376  -0.1549088), wk =   0.0078125
        k(   13) = (  -0.0000000   0.1443376  -0.0774544), wk =   0.0078125
        k(   14) = (   0.0000000   0.2886752   0.0000000), wk =   0.0078125
        k(   15) = (   0.0000000   0.2886752   0.0774545), wk =   0.0078125
        k(   16) = (   0.0000000   0.2886752   0.1549089), wk =   0.0078125
        k(   17) = (   0.0000000   0.2886752   0.2323633), wk =   0.0078125
        k(   18) = (  -0.0000000   0.2886751  -0.3098176), wk =   0.0078125
        k(   19) = (  -0.0000000   0.2886752  -0.2323632), wk =   0.0078125
        k(   20) = (  -0.0000000   0.2886752  -0.1549088), wk =   0.0078125
        k(   21) = (  -0.0000000   0.2886752  -0.0774544), wk =   0.0078125
        k(   22) = (   0.0000000   0.4330128   0.0000001), wk =   0.0078125
        k(   23) = (   0.0000000   0.4330128   0.0774545), wk =   0.0078125
        k(   24) = (   0.0000000   0.4330128   0.1549089), wk =   0.0078125
        k(   25) = (   0.0000000   0.4330128   0.2323633), wk =   0.0078125
        k(   26) = (  -0.0000000   0.4330127  -0.3098176), wk =   0.0078125
        k(   27) = (  -0.0000000   0.4330127  -0.2323632), wk =   0.0078125
        k(   28) = (  -0.0000000   0.4330128  -0.1549088), wk =   0.0078125
        k(   29) = (  -0.0000000   0.4330128  -0.0774543), wk =   0.0078125
        k(   30) = (  -0.0000000  -0.5773504  -0.0000001), wk =   0.0039062
        k(   31) = (  -0.0000000  -0.5773504   0.0774543), wk =   0.0078125
        k(   32) = (   0.0000000  -0.5773503   0.1549087), wk =   0.0078125
        k(   33) = (   0.0000000  -0.5773503   0.2323631), wk =   0.0078125
        k(   34) = (  -0.0000000  -0.5773504  -0.3098177), wk =   0.0039062
        k(   35) = (   0.1250000   0.0721688   0.0000000), wk =   0.0078125
        k(   36) = (   0.1250000   0.0721688   0.0774544), wk =   0.0078125
        k(   37) = (   0.1250000   0.0721688   0.1549088), wk =   0.0078125
        k(   38) = (   0.1250000   0.0721688   0.2323633), wk =   0.0078125
        k(   39) = (   0.1250000   0.0721688  -0.3098176), wk =   0.0078125
        k(   40) = (   0.1250000   0.0721688  -0.2323632), wk =   0.0078125
        k(   41) = (   0.1250000   0.0721688  -0.1549088), wk =   0.0078125
        k(   42) = (   0.1250000   0.0721688  -0.0774544), wk =   0.0078125
        k(   43) = (   0.1250000   0.2165064   0.0000000), wk =   0.0078125
        k(   44) = (   0.1250000   0.2165064   0.0774545), wk =   0.0078125
        k(   45) = (   0.1250000   0.2165064   0.1549089), wk =   0.0078125
        k(   46) = (   0.1250000   0.2165064   0.2323633), wk =   0.0078125
        k(   47) = (   0.1250000   0.2165063  -0.3098176), wk =   0.0078125
        k(   48) = (   0.1250000   0.2165064  -0.2323632), wk =   0.0078125
        k(   49) = (   0.1250000   0.2165064  -0.1549088), wk =   0.0078125
        k(   50) = (   0.1250000   0.2165064  -0.0774544), wk =   0.0078125
        k(   51) = (   0.1250000   0.3608440   0.0000001), wk =   0.0078125
        k(   52) = (   0.1250000   0.3608440   0.0774545), wk =   0.0078125
        k(   53) = (   0.1250000   0.3608440   0.1549089), wk =   0.0078125
        k(   54) = (   0.1250000   0.3608440   0.2323633), wk =   0.0078125
        k(   55) = (   0.1250000   0.3608439  -0.3098176), wk =   0.0078125
        k(   56) = (   0.1250000   0.3608440  -0.2323632), wk =   0.0078125
        k(   57) = (   0.1250000   0.3608440  -0.1549088), wk =   0.0078125
        k(   58) = (   0.1250000   0.3608440  -0.0774543), wk =   0.0078125
        k(   59) = (   0.1250000   0.5051816   0.0000001), wk =   0.0078125
        k(   60) = (   0.1250000   0.5051816   0.0774545), wk =   0.0078125
[...]
        k(  246) = (  -0.5000000  -0.0000000  -0.1549089), wk =   0.0078125
        k(  247) = (  -0.5000000  -0.0000000  -0.0774545), wk =   0.0078125
        k(  248) = (  -0.5000000   0.1443376  -0.0000000), wk =   0.0078125
        k(  249) = (  -0.5000000   0.1443376   0.0774544), wk =   0.0078125
        k(  250) = (  -0.5000000   0.1443376   0.1549088), wk =   0.0078125
        k(  251) = (  -0.5000000   0.1443376   0.2323632), wk =   0.0078125
        k(  252) = (  -0.5000000   0.1443375  -0.3098177), wk =   0.0078125
        k(  253) = (  -0.5000000   0.1443375  -0.2323633), wk =   0.0078125
        k(  254) = (  -0.5000000   0.1443376  -0.1549089), wk =   0.0078125
        k(  255) = (  -0.5000000   0.1443376  -0.0774544), wk =   0.0078125
        k(  256) = (  -0.5000000  -0.8660256  -0.0000002), wk =   0.0039062
        k(  257) = (  -0.5000000  -0.8660256   0.0774542), wk =   0.0078125
        k(  258) = (  -0.5000000  -0.8660255   0.1549086), wk =   0.0078125
        k(  259) = (  -0.5000000  -0.8660255   0.2323631), wk =   0.0078125
        k(  260) = (  -0.5000000  -0.8660256  -0.3098178), wk =   0.0039062

                       cryst. coord.
        k(    1) = (   0.0000000   0.0000000   0.0000000), wk =   0.0039062
        k(    2) = (  -0.0000000  -0.0000000   0.1250000), wk =   0.0078125
        k(    3) = (  -0.0000000  -0.0000000   0.2500000), wk =   0.0078125
        k(    4) = (  -0.0000000  -0.0000000   0.3750000), wk =   0.0078125
        k(    5) = (   0.0000000   0.0000000  -0.5000000), wk =   0.0039062
        k(    6) = (  -0.0000000   0.1250000   0.0000000), wk =   0.0078125
        k(    7) = (   0.0000000   0.1250000   0.1250000), wk =   0.0078125
        k(    8) = (   0.0000000   0.1250000   0.2500000), wk =   0.0078125
        k(    9) = (   0.0000000   0.1250000   0.3750000), wk =   0.0078125
        k(   10) = (  -0.0000000   0.1250000  -0.5000000), wk =   0.0078125
        k(   11) = (  -0.0000000   0.1250000  -0.3750000), wk =   0.0078125
        k(   12) = (   0.0000000   0.1250000  -0.2500000), wk =   0.0078125
[...]
        k(   21) = (  -0.0000000   0.2719312  -0.0909988), wk =   0.0078125
        k(   22) = (  -0.0000000   0.4078967  -0.0000000), wk =   0.0078125
        k(   23) = (  -0.0000000   0.4078967   0.0909988), wk =   0.0078125
        k(   24) = (  -0.0000000   0.4078967   0.1819976), wk =   0.0078125
        k(   25) = (  -0.0000000   0.4078967   0.2729965), wk =   0.0078125
        k(   26) = (  -0.0000000   0.4078968  -0.3639954), wk =   0.0078125
        k(   27) = (  -0.0000000   0.4078968  -0.2729965), wk =   0.0078125
        k(   28) = (  -0.0000000   0.4078968  -0.1819977), wk =   0.0078125
        k(   29) = (  -0.0000000   0.4078967  -0.0909989), wk =   0.0078125
        k(   30) = (   0.0000000  -0.5438623   0.0000000), wk =   0.0039062
        k(   31) = (   0.0000000  -0.5438623   0.0909989), wk =   0.0078125
        k(   32) = (   0.0000000  -0.5438623   0.1819977), wk =   0.0078125
        k(   33) = (   0.0000000  -0.5438623   0.2729965), wk =   0.0078125
        k(   34) = (   0.0000000  -0.5438622  -0.3639953), wk =   0.0039062
        k(   35) = (   0.1177497   0.0679828  -0.0000000), wk =   0.0078125
        k(   36) = (   0.1177497   0.0679828   0.0909988), wk =   0.0078125
        k(   37) = (   0.1177497   0.0679827   0.1819977), wk =   0.0078125
        k(   38) = (   0.1177497   0.0679827   0.2729965), wk =   0.0078125
        k(   39) = (   0.1177497   0.0679828  -0.3639953), wk =   0.0078125
        k(   40) = (   0.1177497   0.0679828  -0.2729965), wk =   0.0078125
        k(   41) = (   0.1177497   0.0679828  -0.1819977), wk =   0.0078125
        k(   42) = (   0.1177497   0.0679828  -0.0909988), wk =   0.0078125
        k(   43) = (   0.1177496   0.2039484  -0.0000000), wk =   0.0078125
        k(   44) = (   0.1177496   0.2039483   0.0909988), wk =   0.0078125
        k(   45) = (   0.1177496   0.2039483   0.1819977), wk =   0.0078125
        k(   46) = (   0.1177496   0.2039483   0.2729965), wk =   0.0078125
        k(   47) = (   0.1177496   0.2039484  -0.3639953), wk =   0.0078125
        k(   48) = (   0.1177496   0.2039484  -0.2729965), wk =   0.0078125
        k(   49) = (   0.1177496   0.2039484  -0.1819977), wk =   0.0078125
        k(   50) = (   0.1177496   0.2039484  -0.0909988), wk =   0.0078125
        k(   51) = (   0.1177496   0.3399139  -0.0000000), wk =   0.0078125
        k(   52) = (   0.1177496   0.3399139   0.0909988), wk =   0.0078125
        k(   53) = (   0.1177496   0.3399139   0.1819976), wk =   0.0078125
        k(   54) = (   0.1177496   0.3399139   0.2729965), wk =   0.0078125
        k(   55) = (   0.1177496   0.3399140  -0.3639953), wk =   0.0078125
        k(   56) = (   0.1177496   0.3399140  -0.2729965), wk =   0.0078125
        k(   57) = (   0.1177496   0.3399140  -0.1819977), wk =   0.0078125
        k(   58) = (   0.1177496   0.3399139  -0.0909988), wk =   0.0078125
        k(   59) = (   0.1177496   0.4758795  -0.0000000), wk =   0.0078125
        k(   60) = (   0.1177496   0.4758795   0.0909988), wk =   0.0078125
[...]
        k(  246) = (  -0.4709986   0.0000001  -0.1819977), wk =   0.0078125
        k(  247) = (  -0.4709986   0.0000000  -0.0909988), wk =   0.0078125
        k(  248) = (  -0.4709986   0.1359656  -0.0000000), wk =   0.0078125
        k(  249) = (  -0.4709986   0.1359656   0.0909988), wk =   0.0078125
        k(  250) = (  -0.4709986   0.1359656   0.1819976), wk =   0.0078125
        k(  251) = (  -0.4709986   0.1359656   0.2729965), wk =   0.0078125
        k(  252) = (  -0.4709986   0.1359657  -0.3639954), wk =   0.0078125
        k(  253) = (  -0.4709986   0.1359657  -0.2729965), wk =   0.0078125
        k(  254) = (  -0.4709986   0.1359656  -0.1819977), wk =   0.0078125
        k(  255) = (  -0.4709986   0.1359656  -0.0909989), wk =   0.0078125
        k(  256) = (  -0.4709986  -0.8157934   0.0000000), wk =   0.0039062
        k(  257) = (  -0.4709986  -0.8157934   0.0909989), wk =   0.0078125
        k(  258) = (  -0.4709986  -0.8157934   0.1819977), wk =   0.0078125
        k(  259) = (  -0.4709986  -0.8157935   0.2729965), wk =   0.0078125
        k(  260) = (  -0.4709986  -0.8157934  -0.3639953), wk =   0.0039062

                       cryst. coord.
        k(    1) = (   0.0000000   0.0000000   0.0000000), wk =   0.0039062
        k(    2) = (  -0.0000000   0.0000000   0.1250000), wk =   0.0078125
        k(    3) = (  -0.0000000   0.0000000   0.2500000), wk =   0.0078125
        k(    4) = (  -0.0000000   0.0000000   0.3750000), wk =   0.0078125
        k(    5) = (   0.0000000  -0.0000000  -0.5000000), wk =   0.0039062
        k(    6) = (  -0.0000000   0.1250000   0.0000000), wk =   0.0078125
        k(    7) = (  -0.0000000   0.1250000   0.1250000), wk =   0.0078125
        k(    8) = (  -0.0000000   0.1250000   0.2500000), wk =   0.0078125
        k(    9) = (  -0.0000000   0.1250000   0.3750000), wk =   0.0078125
        k(   10) = (  -0.0000000   0.1250000  -0.5000000), wk =   0.0078125
        k(   11) = (   0.0000000   0.1250000  -0.3750000), wk =   0.0078125
        k(   12) = (   0.0000000   0.1250000  -0.2500000), wk =   0.0078125
        k(   13) = (  -0.0000000   0.1250000  -0.1250000), wk =   0.0078125
        k(   14) = (  -0.0000000   0.2500000   0.0000000), wk =   0.0078125
        k(   15) = (   0.0000000   0.2500000   0.1250000), wk =   0.0078125
        k(   16) = (  -0.0000000   0.2500000   0.2500000), wk =   0.0078125
        k(   17) = (   0.0000000   0.2500000   0.3750000), wk =   0.0078125
        k(   18) = (   0.0000000   0.2500000  -0.5000000), wk =   0.0078125
        k(   19) = (   0.0000000   0.2500000  -0.3750000), wk =   0.0078125
        k(   20) = (  -0.0000000   0.2500000  -0.2500000), wk =   0.0078125
        k(   21) = (   0.0000000   0.2500000  -0.1250000), wk =   0.0078125
        k(   22) = (   0.0000000   0.3750000  -0.0000000), wk =   0.0078125
        k(   23) = (   0.0000000   0.3750000   0.1250000), wk =   0.0078125
        k(   24) = (  -0.0000000   0.3750000   0.2500000), wk =   0.0078125
        k(   25) = (  -0.0000000   0.3750000   0.3750000), wk =   0.0078125
        k(   26) = (   0.0000000   0.3750000  -0.5000000), wk =   0.0078125
        k(   27) = (  -0.0000000   0.3750000  -0.3750000), wk =   0.0078125
        k(   28) = (   0.0000000   0.3750000  -0.2500000), wk =   0.0078125
        k(   29) = (   0.0000000   0.3750000  -0.1250000), wk =   0.0078125
        k(   30) = (   0.0000000  -0.5000000  -0.0000000), wk =   0.0039062
        k(   31) = (   0.0000000  -0.5000000   0.1250000), wk =   0.0078125
        k(   32) = (  -0.0000000  -0.5000000   0.2500000), wk =   0.0078125
        k(   33) = (   0.0000000  -0.5000000   0.3750000), wk =   0.0078125
        k(   34) = (   0.0000000  -0.5000000  -0.5000000), wk =   0.0039062
        k(   35) = (   0.1250000  -0.0000000  -0.0000000), wk =   0.0078125
        k(   36) = (   0.1250000  -0.0000000   0.1250000), wk =   0.0078125
        k(   37) = (   0.1250000   0.0000000   0.2500000), wk =   0.0078125
        k(   38) = (   0.1250000  -0.0000000   0.3750000), wk =   0.0078125
        k(   39) = (   0.1250000   0.0000000  -0.5000000), wk =   0.0078125
        k(   40) = (   0.1250000   0.0000000  -0.3750000), wk =   0.0078125
        k(   41) = (   0.1250000   0.0000000  -0.2500000), wk =   0.0078125
        k(   42) = (   0.1250000   0.0000000  -0.1250000), wk =   0.0078125
        k(   43) = (   0.1250000   0.1250000   0.0000000), wk =   0.0078125
        k(   44) = (   0.1250000   0.1250000   0.1250000), wk =   0.0078125
        k(   45) = (   0.1250000   0.1250000   0.2500000), wk =   0.0078125
        k(   46) = (   0.1250000   0.1250000   0.3750000), wk =   0.0078125
        k(   47) = (   0.1250000   0.1250000  -0.5000000), wk =   0.0078125
        k(   48) = (   0.1250000   0.1250000  -0.3750000), wk =   0.0078125
        k(   49) = (   0.1250000   0.1250000  -0.2500000), wk =   0.0078125
        k(   50) = (   0.1250000   0.1250000  -0.1250000), wk =   0.0078125
        k(   51) = (   0.1250000   0.2500000   0.0000000), wk =   0.0078125
        k(   52) = (   0.1250000   0.2500000   0.1250000), wk =   0.0078125
        k(   53) = (   0.1250000   0.2500000   0.2500000), wk =   0.0078125
        k(   54) = (   0.1250000   0.2500000   0.3750000), wk =   0.0078125
        k(   55) = (   0.1250000   0.2500000  -0.5000000), wk =   0.0078125
        k(   56) = (   0.1250000   0.2500000  -0.3750000), wk =   0.0078125
        k(   57) = (   0.1250000   0.2500000  -0.2500000), wk =   0.0078125
        k(   58) = (   0.1250000   0.2500000  -0.1250000), wk =   0.0078125
        k(   59) = (   0.1250000   0.3750000   0.0000000), wk =   0.0078125
        k(   60) = (   0.1250000   0.3750000   0.1250000), wk =   0.0078125
[...]
        k(  246) = (  -0.5000000   0.2500000  -0.2500000), wk =   0.0078125
        k(  247) = (  -0.5000000   0.2500000  -0.1250000), wk =   0.0078125
        k(  248) = (  -0.5000000   0.3750000   0.0000000), wk =   0.0078125
        k(  249) = (  -0.5000000   0.3750000   0.1250000), wk =   0.0078125
        k(  250) = (  -0.5000000   0.3750000   0.2500000), wk =   0.0078125
        k(  251) = (  -0.5000000   0.3750000   0.3750000), wk =   0.0078125
        k(  252) = (  -0.5000000   0.3750000  -0.5000000), wk =   0.0078125
        k(  253) = (  -0.5000000   0.3750000  -0.3750000), wk =   0.0078125
        k(  254) = (  -0.5000000   0.3750000  -0.2500000), wk =   0.0078125
        k(  255) = (  -0.5000000   0.3750000  -0.1250000), wk =   0.0078125
        k(  256) = (  -0.5000000  -0.5000000  -0.0000000), wk =   0.0039062
        k(  257) = (  -0.5000000  -0.5000000   0.1250000), wk =   0.0078125
        k(  258) = (  -0.5000000  -0.5000000   0.2500000), wk =   0.0078125
        k(  259) = (  -0.5000000  -0.5000000   0.3750000), wk =   0.0078125
        k(  260) = (  -0.5000000  -0.5000000  -0.5000000), wk =   0.0039062

     Check: negative core charge=   -0.000003

     Initial potential from superposition of free atoms

     starting charge   31.39954, renormalised to   32.00000
     Starting wfcs are   18 randomized atomic wfcs

     Self-consistent Calculation

[...]

     total energy              =    -315.18364238 Ry
     Harris-Foulkes estimate   =    -315.18364245 Ry
     estimated scf accuracy    <       0.00000054 Ry

     iteration #  8     ecut=    80.00 Ry     beta= 0.50
     Davidson diagonalization with overlap
     ethr =  1.68E-09,  avg # of iterations =  2.0

     End of self-consistent calculation

[...]

          k = 0.3532 0.0680-0.0910 (  3697 PWs)   bands (ev):

[...]

          k =-0.4710-0.8158-0.3640 (  3696 PWs)   bands (ev):

   -66.3878 -66.3878 -33.4084 -33.4084 -33.3644 -33.3644 -33.3536 -33.3536
   -10.2372 -10.2372   1.7401   1.7401   4.0300   4.0300   4.6359   4.6359

     occupation numbers
     1.0000   1.0000   1.0000   1.0000   1.0000   1.0000   1.0000   1.0000
     1.0000   1.0000   1.0000   1.0000   1.0000   1.0000   1.0000   1.0000

     highest occupied level (ev):     5.5000

!    total energy              =    -315.18364254 Ry
     Harris-Foulkes estimate   =    -315.18364248 Ry
     estimated scf accuracy    <          1.2E-09 Ry

     The total energy is the sum of the following terms:

     one-electron contribution =    -208.48781386 Ry
     hartree contribution      =     110.99879125 Ry
     xc contribution           =     -48.08494071 Ry
     ewald contribution        =    -169.60967922 Ry

     convergence has been achieved in   8 iterations

     Forces acting on atoms (cartesian axes, Ry/au):

     atom    1 type  2   force =    -0.00000016    0.00000021    0.01571473
     atom    2 type  2   force =    -0.00000037    0.00000112    0.01571502
     atom    3 type  1   force =     0.00000032   -0.00000030   -0.01571492
     atom    4 type  1   force =     0.00000022   -0.00000103   -0.01571482
     The non-local contrib.  to forces
     atom    1 type  2   force =    -0.00000019   -0.00000192   -0.05589168
     atom    2 type  2   force =    -0.00000022    0.00000287   -0.05589031
     atom    3 type  1   force =     0.00000070   -0.00000314   -0.16526720
     atom    4 type  1   force =     0.00000082   -0.00000076   -0.16526787
     The ionic contribution  to forces
     atom    1 type  2   force =    -0.00000699    0.00002026    1.09021354
     atom    2 type  2   force =    -0.00000260    0.00000460    1.09021216
     atom    3 type  1   force =     0.00000309   -0.00001885   -1.09021208
     atom    4 type  1   force =     0.00000651   -0.00000601   -1.09021361
     The local contribution  to forces
     atom    1 type  2   force =     0.00000701   -0.00001814   -1.01855475
     atom    2 type  2   force =     0.00000245   -0.00000633   -1.01855444
     atom    3 type  1   force =    -0.00000347    0.00002169    1.23988687
     atom    4 type  1   force =    -0.00000712    0.00000574    1.23988952
     The core correction contribution to forces
     atom    1 type  2   force =     0.00000001    0.00000000   -0.00011650
     atom    2 type  2   force =     0.00000000   -0.00000003   -0.00011651
     atom    3 type  1   force =     0.00000000    0.00000000    0.00000000
     atom    4 type  1   force =     0.00000000    0.00000000    0.00000000
     The Hubbard contrib.    to forces
     atom    1 type  2   force =     0.00000000    0.00000000    0.00000000
     atom    2 type  2   force =     0.00000000    0.00000000    0.00000000
     atom    3 type  1   force =     0.00000000    0.00000000    0.00000000
     atom    4 type  1   force =     0.00000000    0.00000000    0.00000000
     The SCF correction term to forces
     atom    1 type  2   force =     0.00000000    0.00000000    0.00000000
     atom    2 type  2   force =     0.00000000    0.00000000    0.00000000
     atom    3 type  1   force =     0.00000000    0.00000000    0.00000000
     atom    4 type  1   force =     0.00000000    0.00000000    0.00000000

     Total force =     0.000000     Total SCF correction =     0.000000

     Computing stress (Cartesian axis) and pressure

          total   stress  (Ry/bohr**3)                   (kbar)     P=    0.33
   0.00000343   0.00000000   0.00000000          0.50      0.00      0.00
   0.00000000   0.00000343  -0.00000001          0.00      0.50     -0.00
   0.00000000  -0.00000001  -0.00000008          0.00     -0.00     -0.01

     kinetic stress (kbar)  19877.10     -0.00      0.00
                               -0.00  19877.10     -0.00
                                0.00     -0.00  19923.38

     local   stress (kbar)  -5206.56     -0.02     -0.01
                               -0.02  -5206.60      0.02
                               -0.01      0.02 -15411.53

     nonloc. stress (kbar)   5447.53      0.00      0.00
                                0.00   5447.53      0.00
                                0.00      0.00   5420.34

     hartree stress (kbar)  16271.68      0.01      0.00
                                0.01  16271.69     -0.01
                                0.00     -0.01  20845.95

     exc-cor stress (kbar)  -7065.07      0.00      0.00
                                0.00  -7065.07      0.00
                                0.00      0.00  -7065.09

     corecor stress (kbar)   -260.23     -0.00     -0.00
                               -0.00   -260.23      0.00
                               -0.00      0.00   -260.34

     ewald   stress (kbar) -29063.94      0.01      0.01
                                0.01 -29063.92     -0.01
                                0.01     -0.01 -23452.72

     hubbard stress (kbar)      0.00      0.00      0.00
                                0.00      0.00      0.00
                                0.00      0.00      0.00

     london  stress (kbar)      0.00      0.00      0.00
                                0.00      0.00      0.00
                                0.00      0.00      0.00

     DFT-D3  stress (kbar)      0.00      0.00      0.00
                                0.00      0.00      0.00
                                0.00      0.00      0.00

     XDM     stress (kbar)      0.00      0.00      0.00
                                0.00      0.00      0.00
                                0.00      0.00      0.00

     dft-nl  stress (kbar)      0.00      0.00      0.00
                                0.00      0.00      0.00
                                0.00      0.00      0.00

     TS-vdW  stress (kbar)      0.00      0.00      0.00
                                0.00      0.00      0.00
                                0.00      0.00      0.00

     Writing output data file ZnO.save/

     General routines

     Parallel routines

   This run was terminated on:  16:35: 3   8Jun2022

   JOB DONE.