     Program PWSCF v.6.4.1 starts on  8Jun2022 at  2:30: 2

     K-points division:     npool     =       4
     R & G space division:  proc/nbgrp/npool/nimage =      16
     Waiting for input...
     Reading input from standard input

     Current dimensions of program PWSCF are:
     Max number of different atomic species (ntypx) = 10
     Max number of k-points (npk) =  40000
     Max angular momentum in pseudopotentials (lmaxx) =  3

     bravais-lattice index     =            0
     lattice parameter (alat)  =       6.1103  a.u.
     unit-cell volume          =     318.8455 (a.u.)^3
     number of atoms/cell      =            4
     number of atomic types    =            2
     number of electrons       =        52.00
     number of Kohn-Sham states=           26
     kinetic-energy cutoff     =      80.0000  Ry
     charge density cutoff     =     600.0000  Ry
     convergence threshold     =      1.0E-06
     mixing beta               =       0.5000
     number of iterations used =            8  plain     mixing
     Exchange-correlation      = SLA  PW   PSX  PSC ( 1  4 10  8 0 0)
     nstep                     =          200

     celldm(1)=   6.110292  celldm(2)=   0.000000  celldm(3)=   0.000000
     celldm(4)=   0.000000  celldm(5)=   0.000000  celldm(6)=   0.000000

     crystal axes: (cart. coord. in units of alat)
               a(1) = (   1.000000  -0.000000  -0.000000 )
               a(2) = (  -0.500000   0.866025  -0.000000 )
               a(3) = (  -0.000000  -0.000000   1.613853 )

     reciprocal axes: (cart. coord. in units 2 pi/alat)
               b(1) = (  1.000000  0.577350  0.000000 )
               b(2) = (  0.000000  1.154701  0.000000 )
               b(3) = (  0.000000  0.000000  0.619635 )

     PseudoPot. # 1 for Zn read from file:
     ./GBRV_PBEsol/zn_pbesol_v1.uspp.F.UPF
     MD5 check sum: 7d8615e52efe7c1e2b1899de8658bae2
     Pseudo is Ultrasoft, Zval = 20.0
     Generated by new atomic code, or converted to UPF format
     Using radial grid of  943 points,  6 beta functions with:
                l(1) =   0
                l(2) =   0
                l(3) =   1
                l(4) =   1
                l(5) =   2
                l(6) =   2
     Q(r) pseudized with  8 coefficients,  rinner =    1.100   1.100   1.100
                                                       1.100   1.100

     PseudoPot. # 2 for O  read from file:
     ./GBRV_PBEsol/o_pbesol_v1.2.uspp.F.UPF
     MD5 check sum: 501638753501ef6325af9037351f7734
     Pseudo is Ultrasoft + core correction, Zval =  6.0
     Generated by new atomic code, or converted to UPF format
     Using radial grid of  737 points,  5 beta functions with:
                l(1) =   0
                l(2) =   0
                l(3) =   1
                l(4) =   1
                l(5) =   2
     Q(r) pseudized with  8 coefficients,  rinner =    0.900   0.900   0.900
                                                       0.900   0.900

     atomic species   valence    mass     pseudopotential
        Zn            20.00    65.38000     Zn( 1.00)
        O              6.00    15.99900     O ( 1.00)

     No symmetry found

                                    s                        frac. trans.

      isym =  1     identity

 cryst.   s( 1) = (     1          0          0      )
                  (     0          1          0      )
                  (     0          0          1      )

 cart.    s( 1) = (  1.0000000  0.0000000 -0.0000000 )
                  ( -0.0000000  1.0000000  0.0000000 )
                  ( -0.0000000 -0.0000000  1.0000000 )

   Cartesian axes

     site n.     atom                  positions (alat units)
         1           O   tau(   1) = (   0.5000001   0.2886754   0.0118550  )
         2           O   tau(   2) = (  -0.0000000   0.5773492   0.8187812  )
         3           Zn  tau(   3) = (   0.4999999   0.2886746   1.0269818  )
         4           Zn  tau(   4) = (  -0.0000004   0.5773508   1.8339080  )

   Crystallographic axes

     site n.     atom                  positions (cryst. coord.)
         1           O   tau(   1) = (  0.6666670  0.3333337  0.0073459  )
         2           O   tau(   2) = (  0.3333329  0.6666657  0.5073458  )
         3           Zn  tau(   3) = (  0.6666664  0.3333329  0.6363542  )
         4           Zn  tau(   4) = (  0.3333336  0.6666677  1.1363542  )

     number of k points=   260
                       cart. coord. in units 2pi/alat
        k(    1) = (   0.0000000   0.0000000   0.0000000), wk =   0.0039062
        k(    2) = (   0.0000000   0.0000000   0.0774544), wk =   0.0078125
        k(    3) = (   0.0000000   0.0000000   0.1549088), wk =   0.0078125
        k(    4) = (   0.0000000   0.0000000   0.2323632), wk =   0.0078125
        k(    5) = (  -0.0000000  -0.0000000  -0.3098176), wk =   0.0039062
        k(    6) = (   0.0000000   0.1443376   0.0000000), wk =   0.0078125
        k(    7) = (   0.0000000   0.1443376   0.0774544), wk =   0.0078125
        k(    8) = (   0.0000000   0.1443376   0.1549088), wk =   0.0078125
        k(    9) = (   0.0000000   0.1443376   0.2323633), wk =   0.0078125
        k(   10) = (  -0.0000000   0.1443375  -0.3098176), wk =   0.0078125
        k(   11) = (  -0.0000000   0.1443376  -0.2323632), wk =   0.0078125
        k(   12) = (  -0.0000000   0.1443376  -0.1549088), wk =   0.0078125
        k(   13) = (  -0.0000000   0.1443376  -0.0774544), wk =   0.0078125
        k(   14) = (   0.0000000   0.2886752   0.0000000), wk =   0.0078125
        k(   15) = (   0.0000000   0.2886752   0.0774545), wk =   0.0078125
        k(   16) = (   0.0000000   0.2886752   0.1549089), wk =   0.0078125
        k(   17) = (   0.0000000   0.2886752   0.2323633), wk =   0.0078125
        k(   18) = (  -0.0000000   0.2886751  -0.3098176), wk =   0.0078125
        k(   19) = (  -0.0000000   0.2886752  -0.2323632), wk =   0.0078125
        k(   20) = (  -0.0000000   0.2886752  -0.1549088), wk =   0.0078125
        k(   21) = (  -0.0000000   0.2886752  -0.0774544), wk =   0.0078125
        k(   22) = (   0.0000000   0.4330128   0.0000001), wk =   0.0078125
        k(   23) = (   0.0000000   0.4330128   0.0774545), wk =   0.0078125
        k(   24) = (   0.0000000   0.4330128   0.1549089), wk =   0.0078125
        k(   25) = (   0.0000000   0.4330128   0.2323633), wk =   0.0078125
        k(   26) = (  -0.0000000   0.4330127  -0.3098176), wk =   0.0078125
        k(   27) = (  -0.0000000   0.4330127  -0.2323632), wk =   0.0078125
        k(   28) = (  -0.0000000   0.4330128  -0.1549088), wk =   0.0078125
        k(   29) = (  -0.0000000   0.4330128  -0.0774543), wk =   0.0078125
        k(   30) = (  -0.0000000  -0.5773504  -0.0000001), wk =   0.0039062
        k(   31) = (  -0.0000000  -0.5773504   0.0774543), wk =   0.0078125
        k(   32) = (   0.0000000  -0.5773503   0.1549087), wk =   0.0078125
        k(   33) = (   0.0000000  -0.5773503   0.2323631), wk =   0.0078125
        k(   34) = (  -0.0000000  -0.5773504  -0.3098177), wk =   0.0039062
        k(   35) = (   0.1250000   0.0721688   0.0000000), wk =   0.0078125
        k(   36) = (   0.1250000   0.0721688   0.0774544), wk =   0.0078125
        k(   37) = (   0.1250000   0.0721688   0.1549088), wk =   0.0078125
        k(   38) = (   0.1250000   0.0721688   0.2323633), wk =   0.0078125
        k(   39) = (   0.1250000   0.0721688  -0.3098176), wk =   0.0078125
        k(   40) = (   0.1250000   0.0721688  -0.2323632), wk =   0.0078125
        k(   41) = (   0.1250000   0.0721688  -0.1549088), wk =   0.0078125
        k(   42) = (   0.1250000   0.0721688  -0.0774544), wk =   0.0078125
        k(   43) = (   0.1250000   0.2165064   0.0000000), wk =   0.0078125
        k(   44) = (   0.1250000   0.2165064   0.0774545), wk =   0.0078125
        k(   45) = (   0.1250000   0.2165064   0.1549089), wk =   0.0078125
        k(   46) = (   0.1250000   0.2165064   0.2323633), wk =   0.0078125
        k(   47) = (   0.1250000   0.2165063  -0.3098176), wk =   0.0078125
        k(   48) = (   0.1250000   0.2165064  -0.2323632), wk =   0.0078125
        k(   49) = (   0.1250000   0.2165064  -0.1549088), wk =   0.0078125
        k(   50) = (   0.1250000   0.2165064  -0.0774544), wk =   0.0078125
        k(   51) = (   0.1250000   0.3608440   0.0000001), wk =   0.0078125
        k(   52) = (   0.1250000   0.3608440   0.0774545), wk =   0.0078125
        k(   53) = (   0.1250000   0.3608440   0.1549089), wk =   0.0078125
        k(   54) = (   0.1250000   0.3608440   0.2323633), wk =   0.0078125
        k(   55) = (   0.1250000   0.3608439  -0.3098176), wk =   0.0078125
        k(   56) = (   0.1250000   0.3608440  -0.2323632), wk =   0.0078125
        k(   57) = (   0.1250000   0.3608440  -0.1549088), wk =   0.0078125
        k(   58) = (   0.1250000   0.3608440  -0.0774543), wk =   0.0078125
        k(   59) = (   0.1250000   0.5051816   0.0000001), wk =   0.0078125
        k(   60) = (   0.1250000   0.5051816   0.0774545), wk =   0.0078125
[...]
        k(  246) = (  -0.5000000  -0.0000000  -0.1549089), wk =   0.0078125
        k(  247) = (  -0.5000000  -0.0000000  -0.0774545), wk =   0.0078125
        k(  248) = (  -0.5000000   0.1443376  -0.0000000), wk =   0.0078125
        k(  249) = (  -0.5000000   0.1443376   0.0774544), wk =   0.0078125
        k(  250) = (  -0.5000000   0.1443376   0.1549088), wk =   0.0078125
        k(  251) = (  -0.5000000   0.1443376   0.2323632), wk =   0.0078125
        k(  252) = (  -0.5000000   0.1443375  -0.3098177), wk =   0.0078125
        k(  253) = (  -0.5000000   0.1443375  -0.2323633), wk =   0.0078125
        k(  254) = (  -0.5000000   0.1443376  -0.1549089), wk =   0.0078125
        k(  255) = (  -0.5000000   0.1443376  -0.0774544), wk =   0.0078125
        k(  256) = (  -0.5000000  -0.8660256  -0.0000002), wk =   0.0039062
        k(  257) = (  -0.5000000  -0.8660256   0.0774542), wk =   0.0078125
        k(  258) = (  -0.5000000  -0.8660255   0.1549086), wk =   0.0078125
        k(  259) = (  -0.5000000  -0.8660255   0.2323631), wk =   0.0078125
        k(  260) = (  -0.5000000  -0.8660256  -0.3098178), wk =   0.0039062

                       cryst. coord.
        k(    1) = (   0.0000000   0.0000000   0.0000000), wk =   0.0039062
        k(    2) = (  -0.0000000  -0.0000000   0.1250000), wk =   0.0078125
        k(    3) = (  -0.0000000  -0.0000000   0.2500000), wk =   0.0078125
        k(    4) = (  -0.0000000  -0.0000000   0.3750000), wk =   0.0078125
        k(    5) = (   0.0000000   0.0000000  -0.5000000), wk =   0.0039062
        k(    6) = (  -0.0000000   0.1250000   0.0000000), wk =   0.0078125
        k(    7) = (   0.0000000   0.1250000   0.1250000), wk =   0.0078125
        k(    8) = (   0.0000000   0.1250000   0.2500000), wk =   0.0078125
        k(    9) = (   0.0000000   0.1250000   0.3750000), wk =   0.0078125
        k(   10) = (  -0.0000000   0.1250000  -0.5000000), wk =   0.0078125
        k(   11) = (  -0.0000000   0.1250000  -0.3750000), wk =   0.0078125
        k(   12) = (   0.0000000   0.1250000  -0.2500000), wk =   0.0078125
        k(   13) = (  -0.0000000   0.1250000  -0.1250000), wk =   0.0078125
[...]
        k(   24) = (  -0.0000001   0.4353983   0.1531851), wk =   0.0078125
        k(   25) = (  -0.0000001   0.4353983   0.2297776), wk =   0.0078125
        k(   26) = (  -0.0000001   0.4353980  -0.3063696), wk =   0.0078125
        k(   27) = (  -0.0000001   0.4353981  -0.2297771), wk =   0.0078125
        k(   28) = (  -0.0000001   0.4353981  -0.1531847), wk =   0.0078125
        k(   29) = (  -0.0000001   0.4353981  -0.0765922), wk =   0.0078125
        k(   30) = (   0.0000001  -0.5805309  -0.0000003), wk =   0.0039062
        k(   31) = (   0.0000001  -0.5805309   0.0765922), wk =   0.0078125
        k(   32) = (   0.0000001  -0.5805308   0.1531846), wk =   0.0078125
        k(   33) = (   0.0000001  -0.5805308   0.2297771), wk =   0.0078125
        k(   34) = (   0.0000001  -0.5805311  -0.3063701), wk =   0.0039062
        k(   35) = (   0.1256886   0.0725663   0.0000001), wk =   0.0078125
        k(   36) = (   0.1256886   0.0725664   0.0765925), wk =   0.0078125
        k(   37) = (   0.1256886   0.0725664   0.1531850), wk =   0.0078125
        k(   38) = (   0.1256886   0.0725665   0.2297774), wk =   0.0078125
        k(   39) = (   0.1256886   0.0725662  -0.3063698), wk =   0.0078125
        k(   40) = (   0.1256886   0.0725662  -0.2297773), wk =   0.0078125
        k(   41) = (   0.1256886   0.0725663  -0.1531849), wk =   0.0078125
        k(   42) = (   0.1256886   0.0725663  -0.0765924), wk =   0.0078125
        k(   43) = (   0.1256886   0.2176991   0.0000001), wk =   0.0078125
        k(   44) = (   0.1256886   0.2176991   0.0765926), wk =   0.0078125
        k(   45) = (   0.1256886   0.2176991   0.1531850), wk =   0.0078125
        k(   46) = (   0.1256886   0.2176992   0.2297775), wk =   0.0078125
        k(   47) = (   0.1256885   0.2176989  -0.3063697), wk =   0.0078125
        k(   48) = (   0.1256885   0.2176990  -0.2297772), wk =   0.0078125
        k(   49) = (   0.1256885   0.2176990  -0.1531848), wk =   0.0078125
        k(   50) = (   0.1256886   0.2176990  -0.0765923), wk =   0.0078125
        k(   51) = (   0.1256885   0.3628318   0.0000002), wk =   0.0078125
        k(   52) = (   0.1256885   0.3628318   0.0765926), wk =   0.0078125
        k(   53) = (   0.1256886   0.3628319   0.1531851), wk =   0.0078125
        k(   54) = (   0.1256886   0.3628319   0.2297775), wk =   0.0078125
        k(   55) = (   0.1256885   0.3628316  -0.3063696), wk =   0.0078125
        k(   56) = (   0.1256885   0.3628317  -0.2297772), wk =   0.0078125
        k(   57) = (   0.1256885   0.3628317  -0.1531847), wk =   0.0078125
        k(   58) = (   0.1256885   0.3628318  -0.0765923), wk =   0.0078125
        k(   59) = (   0.1256885   0.5079645   0.0000003), wk =   0.0078125
        k(   60) = (   0.1256885   0.5079646   0.0765927), wk =   0.0078125
[...]
        k(  246) = (  -0.5027545   0.0000000  -0.1531850), wk =   0.0078125
        k(  247) = (  -0.5027544   0.0000001  -0.0765925), wk =   0.0078125
        k(  248) = (  -0.5027545   0.1451328   0.0000000), wk =   0.0078125
        k(  249) = (  -0.5027545   0.1451329   0.0765925), wk =   0.0078125
        k(  250) = (  -0.5027544   0.1451329   0.1531849), wk =   0.0078125
        k(  251) = (  -0.5027544   0.1451329   0.2297774), wk =   0.0078125
        k(  252) = (  -0.5027545   0.1451327  -0.3063698), wk =   0.0078125
        k(  253) = (  -0.5027545   0.1451327  -0.2297773), wk =   0.0078125
        k(  254) = (  -0.5027545   0.1451327  -0.1531849), wk =   0.0078125
        k(  255) = (  -0.5027545   0.1451328  -0.0765924), wk =   0.0078125
        k(  256) = (  -0.5027543  -0.8707963  -0.0000005), wk =   0.0039062
        k(  257) = (  -0.5027543  -0.8707962   0.0765920), wk =   0.0078125
        k(  258) = (  -0.5027543  -0.8707962   0.1531844), wk =   0.0078125
        k(  259) = (  -0.5027542  -0.8707962   0.2297769), wk =   0.0078125
        k(  260) = (  -0.5027543  -0.8707964  -0.3063703), wk =   0.0039062

                       cryst. coord.
        k(    1) = (   0.0000000   0.0000000   0.0000000), wk =   0.0039062
        k(    2) = (   0.0000000   0.0000000   0.1250000), wk =   0.0078125
        k(    3) = (   0.0000000   0.0000000   0.2500000), wk =   0.0078125
        k(    4) = (   0.0000000   0.0000000   0.3750000), wk =   0.0078125
        k(    5) = (  -0.0000000  -0.0000000  -0.5000000), wk =   0.0039062
        k(    6) = (   0.0000000   0.1250000  -0.0000000), wk =   0.0078125
        k(    7) = (   0.0000000   0.1250000   0.1250000), wk =   0.0078125
        k(    8) = (   0.0000000   0.1250000   0.2500000), wk =   0.0078125
        k(    9) = (   0.0000000   0.1250000   0.3750000), wk =   0.0078125
        k(   10) = (   0.0000000   0.1250000  -0.5000000), wk =   0.0078125
        k(   11) = (  -0.0000000   0.1250000  -0.3750000), wk =   0.0078125
        k(   12) = (   0.0000000   0.1250000  -0.2500000), wk =   0.0078125
        k(   13) = (  -0.0000000   0.1250000  -0.1250000), wk =   0.0078125
        k(   14) = (   0.0000000   0.2500000  -0.0000000), wk =   0.0078125
        k(   15) = (  -0.0000000   0.2500000   0.1250000), wk =   0.0078125
        k(   16) = (   0.0000000   0.2500000   0.2500000), wk =   0.0078125
        k(   17) = (   0.0000000   0.2500000   0.3750000), wk =   0.0078125
        k(   18) = (   0.0000000   0.2500000  -0.5000000), wk =   0.0078125
        k(   19) = (  -0.0000000   0.2500000  -0.3750000), wk =   0.0078125
        k(   20) = (  -0.0000000   0.2500000  -0.2500000), wk =   0.0078125
        k(   21) = (  -0.0000000   0.2500000  -0.1250000), wk =   0.0078125
        k(   22) = (   0.0000000   0.3750000   0.0000000), wk =   0.0078125
        k(   23) = (   0.0000000   0.3750000   0.1250000), wk =   0.0078125
        k(   24) = (   0.0000000   0.3750000   0.2500000), wk =   0.0078125
        k(   25) = (   0.0000000   0.3750000   0.3750000), wk =   0.0078125
        k(   26) = (   0.0000000   0.3750000  -0.5000000), wk =   0.0078125
        k(   27) = (   0.0000000   0.3750000  -0.3750000), wk =   0.0078125
        k(   28) = (  -0.0000000   0.3750000  -0.2500000), wk =   0.0078125
        k(   29) = (   0.0000000   0.3750000  -0.1250000), wk =   0.0078125
        k(   30) = (  -0.0000000  -0.5000000   0.0000000), wk =   0.0039062
        k(   31) = (  -0.0000000  -0.5000000   0.1250000), wk =   0.0078125
        k(   32) = (   0.0000000  -0.5000000   0.2500000), wk =   0.0078125
        k(   33) = (  -0.0000000  -0.5000000   0.3750000), wk =   0.0078125
        k(   34) = (  -0.0000000  -0.5000000  -0.5000000), wk =   0.0039062
        k(   35) = (   0.1250000  -0.0000000  -0.0000000), wk =   0.0078125
        k(   36) = (   0.1250000  -0.0000000   0.1250000), wk =   0.0078125
        k(   37) = (   0.1250000   0.0000000   0.2500000), wk =   0.0078125
        k(   38) = (   0.1250000  -0.0000000   0.3750000), wk =   0.0078125
        k(   39) = (   0.1250000   0.0000000  -0.5000000), wk =   0.0078125
        k(   40) = (   0.1250000  -0.0000000  -0.3750000), wk =   0.0078125
        k(   41) = (   0.1250000   0.0000000  -0.2500000), wk =   0.0078125
        k(   42) = (   0.1250000  -0.0000000  -0.1250000), wk =   0.0078125
        k(   43) = (   0.1250000   0.1250000  -0.0000000), wk =   0.0078125
        k(   44) = (   0.1250000   0.1250000   0.1250000), wk =   0.0078125
        k(   45) = (   0.1250000   0.1250000   0.2500000), wk =   0.0078125
        k(   46) = (   0.1250000   0.1250000   0.3750000), wk =   0.0078125
        k(   47) = (   0.1250000   0.1250000  -0.5000000), wk =   0.0078125
        k(   48) = (   0.1250000   0.1250000  -0.3750000), wk =   0.0078125
        k(   49) = (   0.1250000   0.1250000  -0.2500000), wk =   0.0078125
        k(   50) = (   0.1250000   0.1250000  -0.1250000), wk =   0.0078125
        k(   51) = (   0.1250000   0.2500000   0.0000000), wk =   0.0078125
        k(   52) = (   0.1250000   0.2500000   0.1250000), wk =   0.0078125
        k(   53) = (   0.1250000   0.2500000   0.2500000), wk =   0.0078125
        k(   54) = (   0.1250000   0.2500000   0.3750000), wk =   0.0078125
        k(   55) = (   0.1250000   0.2500000  -0.5000000), wk =   0.0078125
        k(   56) = (   0.1250000   0.2500000  -0.3750000), wk =   0.0078125
        k(   57) = (   0.1250000   0.2500000  -0.2500000), wk =   0.0078125
        k(   58) = (   0.1250000   0.2500000  -0.1250000), wk =   0.0078125
        k(   59) = (   0.1250000   0.3750000   0.0000000), wk =   0.0078125
        k(   60) = (   0.1250000   0.3750000   0.1250000), wk =   0.0078125
[...]
        k(  246) = (  -0.5000000   0.2500000  -0.2500000), wk =   0.0078125
        k(  247) = (  -0.5000000   0.2500000  -0.1250000), wk =   0.0078125
        k(  248) = (  -0.5000000   0.3750000   0.0000000), wk =   0.0078125
        k(  249) = (  -0.5000000   0.3750000   0.1250000), wk =   0.0078125
        k(  250) = (  -0.5000000   0.3750000   0.2500000), wk =   0.0078125
        k(  251) = (  -0.5000000   0.3750000   0.3750000), wk =   0.0078125
        k(  252) = (  -0.5000000   0.3750000  -0.5000000), wk =   0.0078125
        k(  253) = (  -0.5000000   0.3750000  -0.3750000), wk =   0.0078125
        k(  254) = (  -0.5000000   0.3750000  -0.2500000), wk =   0.0078125
        k(  255) = (  -0.5000000   0.3750000  -0.1250000), wk =   0.0078125
        k(  256) = (  -0.5000000  -0.5000000   0.0000000), wk =   0.0039062
        k(  257) = (  -0.5000000  -0.5000000   0.1250000), wk =   0.0078125
        k(  258) = (  -0.5000000  -0.5000000   0.2500000), wk =   0.0078125
        k(  259) = (  -0.5000000  -0.5000000   0.3750000), wk =   0.0078125
        k(  260) = (  -0.5000000  -0.5000000  -0.5000000), wk =   0.0039062

     Check: negative core charge=   -0.000003

     Initial potential from superposition of free atoms

     starting charge   51.99974, renormalised to   52.00000
     Starting wfcs are   34 randomized atomic wfcs

     Self-consistent Calculation

[...]

     total energy              =    -987.07996399 Ry
     Harris-Foulkes estimate   =    -987.07996308 Ry
     estimated scf accuracy    <       0.00000245 Ry

     iteration #  7     ecut=    80.00 Ry     beta= 0.50
     Davidson diagonalization with overlap
     ethr =  4.71E-09,  avg # of iterations =  2.0

     End of self-consistent calculation

[...]

          k = 0.3771 0.0726-0.0766 (  3843 PWs)   bands (ev):

[...]

          k =-0.5028-0.8708-0.3064 (  3860 PWs)   bands (ev):

  -114.3371-114.3371 -68.6996 -68.6996 -68.6978 -68.6978 -68.6907 -68.6907
    -8.4185  -8.4184   2.5689   2.5689   3.5052   3.5053   3.5326   3.5326
     4.4248   4.4248   4.5033   4.5034   4.9928   4.9928   7.2956   7.2956
     7.2990   7.2990

     occupation numbers
     1.0000   1.0000   1.0000   1.0000   1.0000   1.0000   1.0000   1.0000
     1.0000   1.0000   1.0000   1.0000   1.0000   1.0000   1.0000   1.0000
     1.0000   1.0000   1.0000   1.0000   1.0000   1.0000   1.0000   1.0000
     1.0000   1.0000

     highest occupied level (ev):     8.7837

!    total energy              =    -987.07996422 Ry
     Harris-Foulkes estimate   =    -987.07996421 Ry
     estimated scf accuracy    <          9.2E-09 Ry

     The total energy is the sum of the following terms:

     one-electron contribution =    -803.29077748 Ry
     hartree contribution      =     423.04671887 Ry
     xc contribution           =     -98.07563160 Ry
     ewald contribution        =    -508.76027401 Ry

     convergence has been achieved in   7 iterations

     Forces acting on atoms (cartesian axes, Ry/au):

     atom    1 type  2   force =    -0.00000000   -0.00000045    0.00537504
     atom    2 type  2   force =    -0.00000043   -0.00000025    0.00537544
     atom    3 type  1   force =     0.00000070    0.00000073   -0.00538536
     atom    4 type  1   force =    -0.00000027   -0.00000003   -0.00536512
     The non-local contrib.  to forces
     atom    1 type  2   force =     0.00000050   -0.00000232    0.00440776
     atom    2 type  2   force =     0.00000066    0.00000148    0.00440871
     atom    3 type  1   force =     0.00000228   -0.00000124   -0.00331025
     atom    4 type  1   force =     0.00000136    0.00000183   -0.00330230
     The ionic contribution  to forces
     atom    1 type  2   force =    -0.00000902    0.00002291   -0.16031156
     atom    2 type  2   force =    -0.00001546   -0.00002081   -0.16030465
     atom    3 type  1   force =     0.00001798   -0.00000095    0.16030983
     atom    4 type  1   force =     0.00000651   -0.00000115    0.16030639
     The local contribution  to forces
     atom    1 type  2   force =     0.00000881   -0.00002077    0.16140808
     atom    2 type  2   force =     0.00001458    0.00001943    0.16140531
     atom    3 type  1   force =    -0.00001929    0.00000318   -0.16249324
     atom    4 type  1   force =    -0.00000818   -0.00000062   -0.16252314
     The core correction contribution to forces
     atom    1 type  2   force =     0.00000000    0.00000001   -0.00004944
     atom    2 type  2   force =    -0.00000000   -0.00000001   -0.00004944
     atom    3 type  1   force =     0.00000000    0.00000000    0.00000000
     atom    4 type  1   force =     0.00000000    0.00000000    0.00000000
     The Hubbard contrib.    to forces
     atom    1 type  2   force =     0.00000000    0.00000000    0.00000000
     atom    2 type  2   force =     0.00000000    0.00000000    0.00000000
     atom    3 type  1   force =     0.00000000    0.00000000    0.00000000
     atom    4 type  1   force =     0.00000000    0.00000000    0.00000000
     The SCF correction term to forces
     atom    1 type  2   force =     0.00000000    0.00000000    0.00000000
     atom    2 type  2   force =     0.00000000    0.00000000    0.00000000
     atom    3 type  1   force =     0.00000000    0.00000000    0.00000000
     atom    4 type  1   force =     0.00000000    0.00000000    0.00000000

     Total force =     0.000000     Total SCF correction =     0.000000

     Computing stress (Cartesian axis) and pressure

          total   stress  (Ry/bohr**3)                   (kbar)     P=   -1.77
  -0.00001292  -0.00000000  -0.00000000         -1.90     -0.00     -0.00
  -0.00000000  -0.00001293   0.00000000         -0.00     -1.90      0.00
  -0.00000000   0.00000000  -0.00001020         -0.00      0.00     -1.50

     kinetic stress (kbar)  33900.19     -0.00     -0.00
                               -0.00  33900.19      0.00
                               -0.00      0.00  33848.66

     local   stress (kbar)  -2611.84     -0.01     -0.04
                               -0.01  -2611.97      0.09
                               -0.04      0.09  -8643.91

     nonloc. stress (kbar)  -1691.62      0.00      0.00
                                0.00  -1691.62     -0.00
                                0.00     -0.00  -1671.18

     hartree stress (kbar)  64190.08      0.00      0.01
                                0.00  64190.14     -0.04
                                0.01     -0.04  66760.20

     exc-cor stress (kbar) -14149.74      0.00      0.00
                                0.00 -14149.74     -0.00
                                0.00     -0.00 -14148.16

     corecor stress (kbar)   -249.09      0.00     -0.00
                                0.00   -249.09     -0.00
                               -0.00     -0.00   -248.95

     ewald   stress (kbar) -79389.88      0.01      0.02
                                0.01 -79389.81     -0.05
                                0.02     -0.05 -75898.16

     hubbard stress (kbar)      0.00      0.00      0.00
                                0.00      0.00      0.00
                                0.00      0.00      0.00

     london  stress (kbar)      0.00      0.00      0.00
                                0.00      0.00      0.00
                                0.00      0.00      0.00

     DFT-D3  stress (kbar)      0.00      0.00      0.00
                                0.00      0.00      0.00
                                0.00      0.00      0.00

     XDM     stress (kbar)      0.00      0.00      0.00
                                0.00      0.00      0.00
                                0.00      0.00      0.00

     dft-nl  stress (kbar)      0.00      0.00      0.00
                                0.00      0.00      0.00
                                0.00      0.00      0.00

     TS-vdW  stress (kbar)      0.00      0.00      0.00
                                0.00      0.00      0.00
                                0.00      0.00      0.00

     Writing output data file ZnO.save/

     General routines

     Parallel routines

   This run was terminated on:   2:32: 8   8Jun2022

   JOB DONE.