     Program PWSCF v.6.4.1 starts on  8Nov2021 at 21:44:33

     K-points division:     npool     =       8
     R & G space division:  proc/nbgrp/npool/nimage =      16
     Waiting for input...
     Reading input from standard input
Warning: card &IONS ignored
Warning: card   UPSCALE           = 100.D0, ignored
Warning: card / ignored
Warning: card &CELL ignored
Warning: card   CELL_DYNAMICS     = 'BFGS' ignored
Warning: card   PRESS_CONV_THR    = 0.5D0 ignored
Warning: card   CELL_DOFREE = 'Z' ignored
Warning: card / ignored

     Current dimensions of program PWSCF are:
     Max number of different atomic species (ntypx) = 10
     Max number of k-points (npk) =  40000
     Max angular momentum in pseudopotentials (lmaxx) =  3

     bravais-lattice index     =            0
     lattice parameter (alat)  =      18.3962  a.u.
     unit-cell volume          =    5238.3865 (a.u.)^3
     number of atoms/cell      =           72
     number of atomic types    =            3
     number of electrons       =       836.00
     number of Kohn-Sham states=          502
     kinetic-energy cutoff     =      60.0000  Ry
     charge density cutoff     =     500.0000  Ry
     convergence threshold     =      1.0E-08
     mixing beta               =       0.5000
     number of iterations used =            8  plain     mixing
     Exchange-correlation      = SLA  PW   PSX  PSC ( 1  4 10  8 0 0)

     celldm(1)=  18.396228  celldm(2)=   0.000000  celldm(3)=   0.000000
     celldm(4)=   0.000000  celldm(5)=   0.000000  celldm(6)=   0.000000

     crystal axes: (cart. coord. in units of alat)
               a(1) = (   0.999999  -0.001169  -0.000203 )
               a(2) = (  -0.501010   0.867329   0.000174 )
               a(3) = (  -0.000266   0.000110   0.970781 )

     reciprocal axes: (cart. coord. in units 2 pi/alat)
               b(1) = (  1.000676  0.578038  0.000209 )
               b(2) = (  0.001348  1.153744 -0.000130 )
               b(3) = (  0.000209 -0.000086  1.030099 )

     PseudoPot. # 1 for Zn read from file:
     ./GBRV_PBEsol/zn_pbesol_v1.uspp.F.UPF
     MD5 check sum: 7d8615e52efe7c1e2b1899de8658bae2
     Pseudo is Ultrasoft, Zval = 20.0
     Generated by new atomic code, or converted to UPF format
     Using radial grid of  943 points,  6 beta functions with:
                l(1) =   0
                l(2) =   0
                l(3) =   1
                l(4) =   1
                l(5) =   2
                l(6) =   2
     Q(r) pseudized with  8 coefficients,  rinner =    1.100   1.100   1.100
                                                       1.100   1.100

     PseudoPot. # 2 for O  read from file:
     ./GBRV_PBEsol/o_pbesol_v1.2.uspp.F.UPF
     MD5 check sum: 501638753501ef6325af9037351f7734
     Pseudo is Ultrasoft + core correction, Zval =  6.0
     Generated by new atomic code, or converted to UPF format
     Using radial grid of  737 points,  5 beta functions with:
                l(1) =   0
                l(2) =   0
                l(3) =   1
                l(4) =   1
                l(5) =   2
     Q(r) pseudized with  8 coefficients,  rinner =    0.900   0.900   0.900
                                                       0.900   0.900

     PseudoPot. # 3 for Mg read from file:
     ./GBRV_PBEsol/mg_pbesol_v1.4.uspp.F.UPF
     MD5 check sum: 4059f37963cf5867752dbf5ab2400678
     Pseudo is Ultrasoft, Zval = 10.0
     Generated by new atomic code, or converted to UPF format
     Using radial grid of  821 points,  7 beta functions with:
                l(1) =   0
                l(2) =   0
                l(3) =   0
                l(4) =   1
                l(5) =   1
                l(6) =   2
                l(7) =   2
     Q(r) pseudized with  8 coefficients,  rinner =    1.200   1.200   1.200
                                                       1.200   1.200

     atomic species   valence    mass     pseudopotential
        Zn            20.00    65.38000     Zn( 1.00)
        O              6.00    15.99900     O ( 1.00)
        Mg            10.00    24.30500     Mg( 1.00)

     No symmetry found

                                    s                        frac. trans.

      isym =  1     identity

 cryst.   s( 1) = (     1          0          0      )
                  (     0          1          0      )
                  (     0          0          1      )

 cart.    s( 1) = (  1.0000000 -0.0000000  0.0000000 )
                  ( -0.0000000  1.0000000  0.0000000 )
                  ( -0.0000000  0.0000000  1.0000000 )

   Cartesian axes

     site n.     atom                  positions (alat units)
         1           Zn  tau(   1) = (   0.1696452   0.0979847   0.2440698  )
         2           Zn  tau(   2) = (   0.1701585   0.0992083   0.7335631  )
         3           Zn  tau(   3) = (  -0.0004580   0.3844788   0.2460706  )
         4           Zn  tau(   4) = (  -0.0000326   0.3849716   0.7304849  )
         5           Zn  tau(   5) = (  -0.1697518   0.6731383   0.2441946  )
         6           Zn  tau(   6) = (  -0.1686104   0.6732662   0.7323239  )
         7           Zn  tau(   7) = (   0.4987802   0.0944026   0.2457698  )
         8           Mg  tau(   8) = (   0.4994102   0.0949134   0.7305070  )
         9           Zn  tau(   9) = (   0.3332748   0.3883106   0.2452345  )
        10           Mg  tau(  10) = (   0.3332497   0.3879838   0.7314194  )
        11           Mg  tau(  11) = (   0.1628886   0.6739817   0.2456667  )
        12           Zn  tau(  12) = (   0.1628564   0.6739202   0.7314257  )
        13           Zn  tau(  13) = (   0.8333327   0.0922465   0.2454128  )
        14           Zn  tau(  14) = (   0.8336983   0.0947243   0.7309137  )
        15           Mg  tau(  15) = (   0.6638696   0.3804714   0.2443853  )
        16           Zn  tau(  16) = (   0.6641742   0.3817709   0.7306471  )
        17           Mg  tau(  17) = (   0.4992577   0.6743661   0.2484639  )
        18           Zn  tau(  18) = (   0.4998185   0.6743778   0.7282196  )
        19           Zn  tau(  19) = (   0.0006169   0.1925617   0.4879358  )
        20           Mg  tau(  20) = (   0.0012541   0.1924364   0.0026648  )
        21           Mg  tau(  21) = (  -0.1675967   0.4806618   0.4880721  )
        22           Mg  tau(  22) = (  -0.1665589   0.4807794   0.0023367  )
        23           Zn  tau(  23) = (  -0.3331196   0.7732918   0.4881816  )
        24           Mg  tau(  24) = (  -0.3327136   0.7733487   0.0019456  )
        25           Zn  tau(  25) = (   0.3342861   0.1952046   0.4906296  )
        26           Zn  tau(  26) = (   0.3341421   0.1949354   0.0015914  )
        27           Zn  tau(  27) = (   0.1645313   0.4819093   0.4905554  )
        28           Zn  tau(  28) = (   0.1641891   0.4805985   0.0046549  )
        29           Zn  tau(  29) = (  -0.0042298   0.7692656   0.4869789  )
        30           Zn  tau(  30) = (  -0.0039971   0.7694555   0.0026531  )
        31           Zn  tau(  31) = (   0.6675228   0.1901160   0.4886575  )
        32           Zn  tau(  32) = (   0.6678132   0.1892229   0.0039294  )
        33           Zn  tau(  33) = (   0.5017234   0.4822142   0.4863045  )
        34           Zn  tau(  34) = (   0.5017703   0.4830756   0.0040123  )
        35           Mg  tau(  35) = (   0.3311963   0.7701267   0.4864453  )
        36           Zn  tau(  36) = (   0.3320251   0.7686003   0.0030431  )
        37           O   tau(  37) = (   0.1684729   0.0978771   0.0030204  )
        38           O   tau(  38) = (   0.1679864   0.0980034   0.4878939  )
        39           O   tau(  39) = (  -0.0013606   0.3842666   0.0026814  )
        40           O   tau(  40) = (  -0.0011296   0.3846476   0.4880303  )
        41           O   tau(  41) = (  -0.1694920   0.6723248   0.0023530  )
        42           O   tau(  42) = (  -0.1699751   0.6725362   0.4881399  )
        43           O   tau(  43) = (   0.4994559   0.0951464   0.0017197  )
        44           O   tau(  44) = (   0.4993604   0.0950799   0.4905879  )
        45           O   tau(  45) = (   0.3336871   0.3878696   0.0016074  )
        46           O   tau(  46) = (   0.3331775   0.3880185   0.4905138  )
        47           O   tau(  47) = (   0.1643213   0.6741796   0.0046707  )
        48           O   tau(  48) = (   0.1638852   0.6746700   0.4869367  )
        49           O   tau(  49) = (   0.8347586   0.0936316   0.0024272  )
        50           O   tau(  50) = (   0.8345106   0.0950188   0.4886154  )
        51           O   tau(  51) = (   0.6665627   0.3824811   0.0039454  )
        52           O   tau(  52) = (   0.6660637   0.3826805   0.4862624  )
        53           O   tau(  53) = (   0.5002478   0.6756465   0.0040287  )
        54           O   tau(  54) = (   0.4994707   0.6753011   0.4864031  )
        55           O   tau(  55) = (   0.0000330   0.1913265   0.2441121  )
        56           O   tau(  56) = (   0.0007761   0.1919946   0.7336048  )
        57           O   tau(  57) = (  -0.1691392   0.4795793   0.2461127  )
        58           O   tau(  58) = (  -0.1684389   0.4800885   0.7305269  )
        59           O   tau(  59) = (  -0.3346292   0.7726639   0.2442367  )
        60           O   tau(  60) = (  -0.3340947   0.7731834   0.7323657  )
        61           O   tau(  61) = (   0.3352173   0.1956651   0.2458117  )
        62           O   tau(  62) = (   0.3357142   0.1957331   0.7305490  )
        63           O   tau(  63) = (   0.1653465   0.4814398   0.2452764  )
        64           O   tau(  64) = (   0.1656104   0.4820262   0.7314613  )
        65           O   tau(  65) = (  -0.0036262   0.7698802   0.2457085  )
        66           O   tau(  66) = (  -0.0027913   0.7701505   0.7314674  )
        67           O   tau(  67) = (   0.6666675   0.1884579   0.2454547  )
        68           O   tau(  68) = (   0.6668542   0.1900734   0.7309557  )
        69           O   tau(  69) = (   0.5009147   0.4821293   0.2444272  )
        70           O   tau(  70) = (   0.5010306   0.4826306   0.7306890  )
        71           O   tau(  71) = (   0.3310756   0.7673567   0.2485054  )
        72           O   tau(  72) = (   0.3314405   0.7686608   0.7282620  )

   Crystallographic axes

     site n.     atom                  positions (cryst. coord.)
         1           Zn  tau(   1) = (  0.2264497  0.1132463  0.2514431  )
         2           Zn  tau(   2) = (  0.2277727  0.1145952  0.7556696  )
         3           Zn  tau(   3) = (  0.2218364  0.4435577  0.2534438  )
         4           Zn  tau(   4) = (  0.2226479  0.4440639  0.7524385  )
         5           Zn  tau(   5) = (  0.2192839  0.7763689  0.2514509  )
         6           Zn  tau(   6) = (  0.2206018  0.7764547  0.7542726  )
         7           Zn  tau(   7) = (  0.5537371  0.1095572  0.2532635  )
         8           Mg  tau(   8) = (  0.5547638  0.1100844  0.7525909  )
         9           Zn  tau(   9) = (  0.5580096  0.4484286  0.2526520  )
        10           Mg  tau(  10) = (  0.5578970  0.4479886  0.7534706  )
        11           Mg  tau(  11) = (  0.5526371  0.7777903  0.2530369  )
[...]
     atom   36 type  1   force =     0.00000000    0.00000000    0.00000000
     atom   37 type  2   force =    -0.00182973   -0.00105778    0.00007873
     atom   38 type  2   force =     0.00010219    0.00009869   -0.00004273
     atom   39 type  2   force =    -0.00187818   -0.00114066   -0.00002300
     atom   40 type  2   force =    -0.00192930    0.00107967   -0.00009497
     atom   41 type  2   force =    -0.00190319   -0.00110908    0.00004289
     atom   42 type  2   force =    -0.00006733   -0.00233511   -0.00004990
     atom   43 type  2   force =    -0.00001490   -0.00000558    0.00038575
     atom   44 type  2   force =    -0.00001044   -0.00003785   -0.00031575
     atom   45 type  2   force =     0.00004389    0.00016234    0.00037207
     atom   46 type  2   force =    -0.00000017    0.00011272   -0.00035102
     atom   47 type  2   force =    -0.00012441   -0.00004040   -0.00033713
     atom   48 type  2   force =     0.00190337    0.00116668    0.00035143
     atom   49 type  2   force =     0.00200291    0.00112709    0.00000124
     atom   50 type  2   force =     0.00003035   -0.00222586   -0.00001897
     atom   51 type  2   force =     0.00185427    0.00098196   -0.00042164
     atom   52 type  2   force =     0.00192905    0.00099069    0.00032988
     atom   53 type  2   force =     0.00201696    0.00118665   -0.00031449
     atom   54 type  2   force =    -0.00190978    0.00114159    0.00033323
     atom   55 type  2   force =     0.00001893   -0.00008207    0.00032216
     atom   56 type  2   force =     0.00001462   -0.00008674   -0.00027854
     atom   57 type  2   force =    -0.00193727   -0.00117654    0.00001787
     atom   58 type  2   force =    -0.00005702   -0.00008154    0.00000515
     atom   59 type  2   force =    -0.00197191   -0.00098488    0.00031690
     atom   60 type  2   force =     0.00002325    0.00013818   -0.00035021
     atom   61 type  2   force =     0.00007514    0.00018982    0.00000414
     atom   62 type  2   force =     0.00196519    0.00116971    0.00000663
     atom   63 type  2   force =    -0.00004803    0.00222583    0.00008953
     atom   64 type  2   force =     0.00197230   -0.00111724    0.00016112
     atom   65 type  2   force =     0.00185555   -0.00114276   -0.00003499
     atom   66 type  2   force =    -0.00008882    0.00227895   -0.00008179
     atom   67 type  2   force =     0.00004963    0.00211446    0.00004836
     atom   68 type  2   force =    -0.00187943   -0.00125109    0.00006203
     atom   69 type  2   force =     0.00193275    0.00108264   -0.00009940
     atom   70 type  2   force =    -0.00193319   -0.00105593    0.00004791
     atom   71 type  2   force =    -0.00005359   -0.00224238   -0.00039755
     atom   72 type  2   force =    -0.00006955   -0.00001934    0.00029795
     The Hubbard contrib.    to forces
     atom    1 type  1   force =     0.00000000    0.00000000    0.00000000
     atom    2 type  1   force =     0.00000000    0.00000000    0.00000000
     atom    3 type  1   force =     0.00000000    0.00000000    0.00000000
     atom    4 type  1   force =     0.00000000    0.00000000    0.00000000
     atom    5 type  1   force =     0.00000000    0.00000000    0.00000000
     atom    6 type  1   force =     0.00000000    0.00000000    0.00000000
     atom    7 type  1   force =     0.00000000    0.00000000    0.00000000
     atom    8 type  3   force =     0.00000000    0.00000000    0.00000000
     atom    9 type  1   force =     0.00000000    0.00000000    0.00000000
     atom   10 type  3   force =     0.00000000    0.00000000    0.00000000
     atom   11 type  3   force =     0.00000000    0.00000000    0.00000000
     atom   12 type  1   force =     0.00000000    0.00000000    0.00000000
     atom   13 type  1   force =     0.00000000    0.00000000    0.00000000
     atom   14 type  1   force =     0.00000000    0.00000000    0.00000000
     atom   15 type  3   force =     0.00000000    0.00000000    0.00000000
     atom   16 type  1   force =     0.00000000    0.00000000    0.00000000
     atom   17 type  3   force =     0.00000000    0.00000000    0.00000000
     atom   18 type  1   force =     0.00000000    0.00000000    0.00000000
     atom   19 type  1   force =     0.00000000    0.00000000    0.00000000
     atom   20 type  3   force =     0.00000000    0.00000000    0.00000000
     atom   21 type  3   force =     0.00000000    0.00000000    0.00000000
     atom   22 type  3   force =     0.00000000    0.00000000    0.00000000
     atom   23 type  1   force =     0.00000000    0.00000000    0.00000000
     atom   24 type  3   force =     0.00000000    0.00000000    0.00000000
     atom   25 type  1   force =     0.00000000    0.00000000    0.00000000
     atom   26 type  1   force =     0.00000000    0.00000000    0.00000000
     atom   27 type  1   force =     0.00000000    0.00000000    0.00000000
     atom   28 type  1   force =     0.00000000    0.00000000    0.00000000
     atom   29 type  1   force =     0.00000000    0.00000000    0.00000000
     atom   30 type  1   force =     0.00000000    0.00000000    0.00000000
     atom   31 type  1   force =     0.00000000    0.00000000    0.00000000
     atom   32 type  1   force =     0.00000000    0.00000000    0.00000000
     atom   33 type  1   force =     0.00000000    0.00000000    0.00000000
     atom   34 type  1   force =     0.00000000    0.00000000    0.00000000
     atom   35 type  3   force =     0.00000000    0.00000000    0.00000000
     atom   36 type  1   force =     0.00000000    0.00000000    0.00000000
     atom   37 type  2   force =     0.00000000    0.00000000    0.00000000
     atom   38 type  2   force =     0.00000000    0.00000000    0.00000000
     atom   39 type  2   force =     0.00000000    0.00000000    0.00000000
     atom   40 type  2   force =     0.00000000    0.00000000    0.00000000
     atom   41 type  2   force =     0.00000000    0.00000000    0.00000000
     atom   42 type  2   force =     0.00000000    0.00000000    0.00000000
     atom   43 type  2   force =     0.00000000    0.00000000    0.00000000
     atom   44 type  2   force =     0.00000000    0.00000000    0.00000000
     atom   45 type  2   force =     0.00000000    0.00000000    0.00000000
     atom   46 type  2   force =     0.00000000    0.00000000    0.00000000
     atom   47 type  2   force =     0.00000000    0.00000000    0.00000000
     atom   48 type  2   force =     0.00000000    0.00000000    0.00000000
     atom   49 type  2   force =     0.00000000    0.00000000    0.00000000
     atom   50 type  2   force =     0.00000000    0.00000000    0.00000000
     atom   51 type  2   force =     0.00000000    0.00000000    0.00000000
     atom   52 type  2   force =     0.00000000    0.00000000    0.00000000
     atom   53 type  2   force =     0.00000000    0.00000000    0.00000000
     atom   54 type  2   force =     0.00000000    0.00000000    0.00000000
     atom   55 type  2   force =     0.00000000    0.00000000    0.00000000
     atom   56 type  2   force =     0.00000000    0.00000000    0.00000000
     atom   57 type  2   force =     0.00000000    0.00000000    0.00000000
     atom   58 type  2   force =     0.00000000    0.00000000    0.00000000
     atom   59 type  2   force =     0.00000000    0.00000000    0.00000000
     atom   60 type  2   force =     0.00000000    0.00000000    0.00000000
     atom   61 type  2   force =     0.00000000    0.00000000    0.00000000
     atom   62 type  2   force =     0.00000000    0.00000000    0.00000000
     atom   63 type  2   force =     0.00000000    0.00000000    0.00000000
     atom   64 type  2   force =     0.00000000    0.00000000    0.00000000
     atom   65 type  2   force =     0.00000000    0.00000000    0.00000000
     atom   66 type  2   force =     0.00000000    0.00000000    0.00000000
     atom   67 type  2   force =     0.00000000    0.00000000    0.00000000
     atom   68 type  2   force =     0.00000000    0.00000000    0.00000000
     atom   69 type  2   force =     0.00000000    0.00000000    0.00000000
     atom   70 type  2   force =     0.00000000    0.00000000    0.00000000
     atom   71 type  2   force =     0.00000000    0.00000000    0.00000000
     atom   72 type  2   force =     0.00000000    0.00000000    0.00000000
     The SCF correction term to forces
     atom    1 type  1   force =    -0.00001992    0.00002067    0.00000000
     atom    2 type  1   force =    -0.00004504   -0.00003314    0.00000000
     atom    3 type  1   force =    -0.00006357   -0.00002111    0.00000000
     atom    4 type  1   force =    -0.00003952   -0.00003122    0.00000000
     atom    5 type  1   force =    -0.00004787   -0.00006995    0.00000000
     atom    6 type  1   force =    -0.00005838   -0.00001877    0.00000000
     atom    7 type  1   force =    -0.00003779    0.00003470    0.00000000
     atom    8 type  3   force =     0.00000508    0.00000791    0.00000000
     atom    9 type  1   force =     0.00001222   -0.00001704    0.00000000
     atom   10 type  3   force =     0.00001685    0.00000697    0.00000000
     atom   11 type  3   force =     0.00001773   -0.00000488    0.00000000
     atom   12 type  1   force =     0.00003839    0.00001847    0.00000000
     atom   13 type  1   force =     0.00005533    0.00000583    0.00000000
     atom   14 type  1   force =     0.00003944   -0.00000640    0.00000000
     atom   15 type  3   force =     0.00002650    0.00002802    0.00000000
     atom   16 type  1   force =     0.00000469    0.00001912    0.00000000
     atom   17 type  3   force =     0.00000207    0.00000158    0.00000000
     atom   18 type  1   force =     0.00001562    0.00002192    0.00000000
     atom   19 type  1   force =    -0.00001917   -0.00002591    0.00000000
     atom   20 type  3   force =    -0.00002558   -0.00001386    0.00000000
     atom   21 type  3   force =    -0.00002411   -0.00000779    0.00000000
     atom   22 type  3   force =    -0.00003355   -0.00001486    0.00000000
     atom   23 type  1   force =    -0.00004600   -0.00002060    0.00000000
     atom   24 type  3   force =    -0.00002852   -0.00002081    0.00000000
     atom   25 type  1   force =     0.00002136    0.00002583    0.00000000
     atom   26 type  1   force =     0.00003034    0.00003384    0.00000000
     atom   27 type  1   force =     0.00004197    0.00002796    0.00000000
     atom   28 type  1   force =     0.00003572    0.00002760    0.00000000
     atom   29 type  1   force =     0.00002933    0.00000170    0.00000000
     atom   30 type  1   force =     0.00002881   -0.00000148    0.00000000
     atom   31 type  1   force =     0.00000532    0.00001725    0.00000000
     atom   32 type  1   force =     0.00002803    0.00003517    0.00000000
     atom   33 type  1   force =     0.00000659    0.00002094    0.00000000
     atom   34 type  1   force =     0.00003438    0.00001653    0.00000000
     atom   35 type  3   force =     0.00000909   -0.00001436    0.00000000
     atom   36 type  1   force =     0.00002469   -0.00000482    0.00000000
     atom   37 type  2   force =    -0.00000626   -0.00000415    0.00000000
     atom   38 type  2   force =    -0.00000500   -0.00000322    0.00000000
     atom   39 type  2   force =    -0.00000845   -0.00000043    0.00000000
     atom   40 type  2   force =    -0.00000730   -0.00000083    0.00000000
     atom   41 type  2   force =    -0.00000696   -0.00000795    0.00000000
     atom   42 type  2   force =    -0.00000720   -0.00000657    0.00000000
     atom   43 type  2   force =    -0.00000050    0.00000115    0.00000000
     atom   44 type  2   force =    -0.00000084    0.00000229    0.00000000
     atom   45 type  2   force =     0.00000237    0.00000209    0.00000000
     atom   46 type  2   force =     0.00000398    0.00000252    0.00000000
     atom   47 type  2   force =     0.00000284   -0.00000102    0.00000000
     atom   48 type  2   force =     0.00000817    0.00000054    0.00000000
     atom   49 type  2   force =     0.00000672    0.00000183    0.00000000
     atom   50 type  2   force =     0.00000534   -0.00000285    0.00000000
     atom   51 type  2   force =     0.00000784    0.00000802    0.00000000
     atom   52 type  2   force =     0.00000314    0.00000741    0.00000000
     atom   53 type  2   force =     0.00000510    0.00000185    0.00000000
     atom   54 type  2   force =    -0.00000020    0.00000067    0.00000000
     atom   55 type  2   force =     0.00000052    0.00000163    0.00000000
     atom   56 type  2   force =    -0.00000238   -0.00000330    0.00000000
     atom   57 type  2   force =    -0.00000875   -0.00000273    0.00000000
     atom   58 type  2   force =    -0.00000693    0.00000021    0.00000000
     atom   59 type  2   force =    -0.00000462   -0.00000645    0.00000000
     atom   60 type  2   force =    -0.00000465   -0.00000507    0.00000000
     atom   61 type  2   force =     0.00000215    0.00000623    0.00000000
     atom   62 type  2   force =     0.00000069    0.00000236    0.00000000
     atom   63 type  2   force =     0.00000462    0.00000064    0.00000000
     atom   64 type  2   force =     0.00000197    0.00000171    0.00000000
     atom   65 type  2   force =    -0.00000131   -0.00000197    0.00000000
     atom   66 type  2   force =    -0.00000155   -0.00000325    0.00000000
     atom   67 type  2   force =    -0.00000089    0.00000922    0.00000000
     atom   68 type  2   force =     0.00000142    0.00000524    0.00000000
     atom   69 type  2   force =     0.00000201    0.00000103    0.00000000
     atom   70 type  2   force =     0.00000378    0.00000256    0.00000000
     atom   71 type  2   force =     0.00000467   -0.00000588    0.00000000
     atom   72 type  2   force =     0.00000523   -0.00000212    0.00000000

     Total force =     0.000078     Total SCF correction =     0.000242
     SCF correction compared to forces is large: reduce conv_thr to get better values

     Computing stress (Cartesian axis) and pressure

          total   stress  (Ry/bohr**3)                   (kbar)     P=  140.64
   0.00142918  -0.00000325  -0.00000015        210.24     -0.48     -0.02
  -0.00000325   0.00143082  -0.00000028         -0.48    210.48     -0.04
  -0.00000015  -0.00000028   0.00000811         -0.02     -0.04      1.19

     kinetic stress (kbar)  32618.71      0.04      0.14
                                0.04  32618.35      0.20
                                0.14      0.20  33028.66

     local   stress (kbar) -11967.17   2075.36   1513.54
                             2075.36 -11894.71    424.23
                             1513.54    424.23   3031.74

     nonloc. stress (kbar)    384.18     -0.83     -0.15
                               -0.83    384.31     -0.07
                               -0.15     -0.07    103.65

     hartree stress (kbar)  58832.20  -1004.05   -739.13
                            -1004.05  58786.14   -209.71
                             -739.13   -209.71  54318.04

     exc-cor stress (kbar) -13282.45     -0.07     -0.00
                               -0.07 -13282.40     -0.00
                               -0.00     -0.00 -13295.32

     corecor stress (kbar)   -273.42      0.00     -0.00
                                0.00   -273.42     -0.00
                               -0.00     -0.00   -273.89

     ewald   stress (kbar) -66101.81  -1070.93   -774.42
                            -1070.93 -66127.80   -214.69
                             -774.42   -214.69 -76911.68

     hubbard stress (kbar)      0.00      0.00      0.00
                                0.00      0.00      0.00
                                0.00      0.00      0.00

     london  stress (kbar)      0.00      0.00      0.00
                                0.00      0.00      0.00
                                0.00      0.00      0.00

     DFT-D3  stress (kbar)      0.00      0.00      0.00
                                0.00      0.00      0.00
                                0.00      0.00      0.00

     XDM     stress (kbar)      0.00      0.00      0.00
                                0.00      0.00      0.00
                                0.00      0.00      0.00

     dft-nl  stress (kbar)      0.00      0.00      0.00
                                0.00      0.00      0.00
                                0.00      0.00      0.00

     TS-vdW  stress (kbar)      0.00      0.00      0.00
                                0.00      0.00      0.00
                                0.00      0.00      0.00

     Writing output data file ZnO.save/

     General routines

     Parallel routines

   This run was terminated on:  22: 0: 1   8Nov2021

   JOB DONE.