     Program PWSCF v.6.4.1 starts on  7Jun2022 at 19:15:52

     K-points division:     npool     =       4
     R & G space division:  proc/nbgrp/npool/nimage =      16
     Waiting for input...
     Reading input from standard input

     Current dimensions of program PWSCF are:
     Max number of different atomic species (ntypx) = 10
     Max number of k-points (npk) =  40000
     Max angular momentum in pseudopotentials (lmaxx) =  3

     bravais-lattice index     =            0
     lattice parameter (alat)  =       6.1103  a.u.
     unit-cell volume          =     318.8455 (a.u.)^3
     number of atoms/cell      =            4
     number of atomic types    =            2
     number of electrons       =        52.00
     number of Kohn-Sham states=           26
     kinetic-energy cutoff     =      80.0000  Ry
     charge density cutoff     =     600.0000  Ry
     convergence threshold     =      1.0E-06
     mixing beta               =       0.5000
     number of iterations used =            8  plain     mixing
     Exchange-correlation      = SLA  PW   PSX  PSC ( 1  4 10  8 0 0)
     nstep                     =          200

     celldm(1)=   6.110292  celldm(2)=   0.000000  celldm(3)=   0.000000
     celldm(4)=   0.000000  celldm(5)=   0.000000  celldm(6)=   0.000000

     crystal axes: (cart. coord. in units of alat)
               a(1) = (   1.000000  -0.000000  -0.000000 )
               a(2) = (  -0.500000   0.866025  -0.000000 )
               a(3) = (  -0.000000  -0.000000   1.613853 )

     reciprocal axes: (cart. coord. in units 2 pi/alat)
               b(1) = (  1.000000  0.577350  0.000000 )
               b(2) = (  0.000000  1.154701  0.000000 )
               b(3) = (  0.000000  0.000000  0.619635 )

     PseudoPot. # 1 for Zn read from file:
     ./GBRV_PBEsol/zn_pbesol_v1.uspp.F.UPF
     MD5 check sum: 7d8615e52efe7c1e2b1899de8658bae2
     Pseudo is Ultrasoft, Zval = 20.0
     Generated by new atomic code, or converted to UPF format
     Using radial grid of  943 points,  6 beta functions with:
                l(1) =   0
                l(2) =   0
                l(3) =   1
                l(4) =   1
                l(5) =   2
                l(6) =   2
     Q(r) pseudized with  8 coefficients,  rinner =    1.100   1.100   1.100
                                                       1.100   1.100

     PseudoPot. # 2 for O  read from file:
     ./GBRV_PBEsol/o_pbesol_v1.2.uspp.F.UPF
     MD5 check sum: 501638753501ef6325af9037351f7734
     Pseudo is Ultrasoft + core correction, Zval =  6.0
     Generated by new atomic code, or converted to UPF format
     Using radial grid of  737 points,  5 beta functions with:
                l(1) =   0
                l(2) =   0
                l(3) =   1
                l(4) =   1
                l(5) =   2
     Q(r) pseudized with  8 coefficients,  rinner =    0.900   0.900   0.900
                                                       0.900   0.900

     atomic species   valence    mass     pseudopotential
        Zn            20.00    65.38000     Zn( 1.00)
        O              6.00    15.99900     O ( 1.00)

     No symmetry found

                                    s                        frac. trans.

      isym =  1     identity

 cryst.   s( 1) = (     1          0          0      )
                  (     0          1          0      )
                  (     0          0          1      )

 cart.    s( 1) = (  1.0000000  0.0000000 -0.0000000 )
                  ( -0.0000000  1.0000000  0.0000000 )
                  ( -0.0000000 -0.0000000  1.0000000 )

   Cartesian axes

     site n.     atom                  positions (alat units)
         1           O   tau(   1) = (   0.5000001   0.2886754   0.0118550  )
         2           O   tau(   2) = (  -0.0000000   0.5773492   0.8187812  )
         3           Zn  tau(   3) = (   0.4999999   0.2886746   0.6073801  )
         4           Zn  tau(   4) = (  -0.0000003   0.5773508   1.4143063  )

   Crystallographic axes

     site n.     atom                  positions (cryst. coord.)
         1           O   tau(   1) = (  0.6666670  0.3333337  0.0073459  )
         2           O   tau(   2) = (  0.3333329  0.6666657  0.5073458  )
         3           Zn  tau(   3) = (  0.6666664  0.3333329  0.3763542  )
         4           Zn  tau(   4) = (  0.3333336  0.6666677  0.8763542  )

     number of k points=   260
                       cart. coord. in units 2pi/alat
        k(    1) = (   0.0000000   0.0000000   0.0000000), wk =   0.0039062
        k(    2) = (   0.0000000   0.0000000   0.0774544), wk =   0.0078125
        k(    3) = (   0.0000000   0.0000000   0.1549088), wk =   0.0078125
        k(    4) = (   0.0000000   0.0000000   0.2323632), wk =   0.0078125
        k(    5) = (  -0.0000000  -0.0000000  -0.3098176), wk =   0.0039062
        k(    6) = (   0.0000000   0.1443376   0.0000000), wk =   0.0078125
        k(    7) = (   0.0000000   0.1443376   0.0774544), wk =   0.0078125
        k(    8) = (   0.0000000   0.1443376   0.1549088), wk =   0.0078125
        k(    9) = (   0.0000000   0.1443376   0.2323633), wk =   0.0078125
        k(   10) = (  -0.0000000   0.1443375  -0.3098176), wk =   0.0078125
        k(   11) = (  -0.0000000   0.1443376  -0.2323632), wk =   0.0078125
        k(   12) = (  -0.0000000   0.1443376  -0.1549088), wk =   0.0078125
        k(   13) = (  -0.0000000   0.1443376  -0.0774544), wk =   0.0078125
        k(   14) = (   0.0000000   0.2886752   0.0000000), wk =   0.0078125
        k(   15) = (   0.0000000   0.2886752   0.0774545), wk =   0.0078125
        k(   16) = (   0.0000000   0.2886752   0.1549089), wk =   0.0078125
        k(   17) = (   0.0000000   0.2886752   0.2323633), wk =   0.0078125
        k(   18) = (  -0.0000000   0.2886751  -0.3098176), wk =   0.0078125
        k(   19) = (  -0.0000000   0.2886752  -0.2323632), wk =   0.0078125
        k(   20) = (  -0.0000000   0.2886752  -0.1549088), wk =   0.0078125
        k(   21) = (  -0.0000000   0.2886752  -0.0774544), wk =   0.0078125
        k(   22) = (   0.0000000   0.4330128   0.0000001), wk =   0.0078125
        k(   23) = (   0.0000000   0.4330128   0.0774545), wk =   0.0078125
        k(   24) = (   0.0000000   0.4330128   0.1549089), wk =   0.0078125
        k(   25) = (   0.0000000   0.4330128   0.2323633), wk =   0.0078125
        k(   26) = (  -0.0000000   0.4330127  -0.3098176), wk =   0.0078125
        k(   27) = (  -0.0000000   0.4330127  -0.2323632), wk =   0.0078125
        k(   28) = (  -0.0000000   0.4330128  -0.1549088), wk =   0.0078125
        k(   29) = (  -0.0000000   0.4330128  -0.0774543), wk =   0.0078125
        k(   30) = (  -0.0000000  -0.5773504  -0.0000001), wk =   0.0039062
        k(   31) = (  -0.0000000  -0.5773504   0.0774543), wk =   0.0078125
        k(   32) = (   0.0000000  -0.5773503   0.1549087), wk =   0.0078125
        k(   33) = (   0.0000000  -0.5773503   0.2323631), wk =   0.0078125
        k(   34) = (  -0.0000000  -0.5773504  -0.3098177), wk =   0.0039062
        k(   35) = (   0.1250000   0.0721688   0.0000000), wk =   0.0078125
        k(   36) = (   0.1250000   0.0721688   0.0774544), wk =   0.0078125
        k(   37) = (   0.1250000   0.0721688   0.1549088), wk =   0.0078125
        k(   38) = (   0.1250000   0.0721688   0.2323633), wk =   0.0078125
        k(   39) = (   0.1250000   0.0721688  -0.3098176), wk =   0.0078125
        k(   40) = (   0.1250000   0.0721688  -0.2323632), wk =   0.0078125
        k(   41) = (   0.1250000   0.0721688  -0.1549088), wk =   0.0078125
        k(   42) = (   0.1250000   0.0721688  -0.0774544), wk =   0.0078125
        k(   43) = (   0.1250000   0.2165064   0.0000000), wk =   0.0078125
        k(   44) = (   0.1250000   0.2165064   0.0774545), wk =   0.0078125
        k(   45) = (   0.1250000   0.2165064   0.1549089), wk =   0.0078125
        k(   46) = (   0.1250000   0.2165064   0.2323633), wk =   0.0078125
        k(   47) = (   0.1250000   0.2165063  -0.3098176), wk =   0.0078125
        k(   48) = (   0.1250000   0.2165064  -0.2323632), wk =   0.0078125
        k(   49) = (   0.1250000   0.2165064  -0.1549088), wk =   0.0078125
        k(   50) = (   0.1250000   0.2165064  -0.0774544), wk =   0.0078125
        k(   51) = (   0.1250000   0.3608440   0.0000001), wk =   0.0078125
        k(   52) = (   0.1250000   0.3608440   0.0774545), wk =   0.0078125
        k(   53) = (   0.1250000   0.3608440   0.1549089), wk =   0.0078125
        k(   54) = (   0.1250000   0.3608440   0.2323633), wk =   0.0078125
        k(   55) = (   0.1250000   0.3608439  -0.3098176), wk =   0.0078125
        k(   56) = (   0.1250000   0.3608440  -0.2323632), wk =   0.0078125
        k(   57) = (   0.1250000   0.3608440  -0.1549088), wk =   0.0078125
        k(   58) = (   0.1250000   0.3608440  -0.0774543), wk =   0.0078125
        k(   59) = (   0.1250000   0.5051816   0.0000001), wk =   0.0078125
        k(   60) = (   0.1250000   0.5051816   0.0774545), wk =   0.0078125
[...]
        k(  246) = (  -0.5000000  -0.0000000  -0.1549089), wk =   0.0078125
        k(  247) = (  -0.5000000  -0.0000000  -0.0774545), wk =   0.0078125
        k(  248) = (  -0.5000000   0.1443376  -0.0000000), wk =   0.0078125
        k(  249) = (  -0.5000000   0.1443376   0.0774544), wk =   0.0078125
        k(  250) = (  -0.5000000   0.1443376   0.1549088), wk =   0.0078125
        k(  251) = (  -0.5000000   0.1443376   0.2323632), wk =   0.0078125
        k(  252) = (  -0.5000000   0.1443375  -0.3098177), wk =   0.0078125
        k(  253) = (  -0.5000000   0.1443375  -0.2323633), wk =   0.0078125
        k(  254) = (  -0.5000000   0.1443376  -0.1549089), wk =   0.0078125
        k(  255) = (  -0.5000000   0.1443376  -0.0774544), wk =   0.0078125
        k(  256) = (  -0.5000000  -0.8660256  -0.0000002), wk =   0.0039062
        k(  257) = (  -0.5000000  -0.8660256   0.0774542), wk =   0.0078125
        k(  258) = (  -0.5000000  -0.8660255   0.1549086), wk =   0.0078125
        k(  259) = (  -0.5000000  -0.8660255   0.2323631), wk =   0.0078125
        k(  260) = (  -0.5000000  -0.8660256  -0.3098178), wk =   0.0039062

                       cryst. coord.
        k(    1) = (   0.0000000   0.0000000   0.0000000), wk =   0.0039062
        k(    2) = (  -0.0000000  -0.0000000   0.1250000), wk =   0.0078125
        k(    3) = (  -0.0000000  -0.0000000   0.2500000), wk =   0.0078125
        k(    4) = (  -0.0000000  -0.0000000   0.3750000), wk =   0.0078125
        k(    5) = (   0.0000000   0.0000000  -0.5000000), wk =   0.0039062
        k(    6) = (  -0.0000000   0.1250000   0.0000000), wk =   0.0078125
        k(    7) = (   0.0000000   0.1250000   0.1250000), wk =   0.0078125
        k(    8) = (   0.0000000   0.1250000   0.2500000), wk =   0.0078125
        k(    9) = (   0.0000000   0.1250000   0.3750000), wk =   0.0078125
        k(   10) = (  -0.0000000   0.1250000  -0.5000000), wk =   0.0078125
        k(   11) = (  -0.0000000   0.1250000  -0.3750000), wk =   0.0078125
        k(   12) = (   0.0000000   0.1250000  -0.2500000), wk =   0.0078125
        k(   13) = (  -0.0000000   0.1250000  -0.1250000), wk =   0.0078125
[...]
        k(   24) = (  -0.0000000   0.4361488   0.1527891), wk =   0.0078125
        k(   25) = (  -0.0000001   0.4361488   0.2291836), wk =   0.0078125
        k(   26) = (   0.0000001   0.4361488  -0.3055782), wk =   0.0078125
        k(   27) = (   0.0000001   0.4361488  -0.2291837), wk =   0.0078125
        k(   28) = (   0.0000000   0.4361488  -0.1527891), wk =   0.0078125
        k(   29) = (   0.0000000   0.4361488  -0.0763946), wk =   0.0078125
        k(   30) = (   0.0000000  -0.5815317   0.0000001), wk =   0.0039062
        k(   31) = (  -0.0000000  -0.5815317   0.0763946), wk =   0.0078125
        k(   32) = (  -0.0000000  -0.5815317   0.1527892), wk =   0.0078125
        k(   33) = (  -0.0000001  -0.5815317   0.2291837), wk =   0.0078125
        k(   34) = (   0.0000001  -0.5815317  -0.3055782), wk =   0.0039062
        k(   35) = (   0.1259053   0.0726915  -0.0000000), wk =   0.0078125
        k(   36) = (   0.1259052   0.0726915   0.0763945), wk =   0.0078125
        k(   37) = (   0.1259052   0.0726915   0.1527891), wk =   0.0078125
        k(   38) = (   0.1259052   0.0726914   0.2291836), wk =   0.0078125
        k(   39) = (   0.1259053   0.0726915  -0.3055782), wk =   0.0078125
        k(   40) = (   0.1259053   0.0726915  -0.2291837), wk =   0.0078125
        k(   41) = (   0.1259053   0.0726915  -0.1527891), wk =   0.0078125
        k(   42) = (   0.1259053   0.0726915  -0.0763946), wk =   0.0078125
        k(   43) = (   0.1259053   0.2180744  -0.0000001), wk =   0.0078125
        k(   44) = (   0.1259052   0.2180744   0.0763945), wk =   0.0078125
        k(   45) = (   0.1259052   0.2180744   0.1527891), wk =   0.0078125
        k(   46) = (   0.1259052   0.2180744   0.2291836), wk =   0.0078125
        k(   47) = (   0.1259053   0.2180744  -0.3055783), wk =   0.0078125
        k(   48) = (   0.1259053   0.2180744  -0.2291837), wk =   0.0078125
        k(   49) = (   0.1259053   0.2180744  -0.1527892), wk =   0.0078125
        k(   50) = (   0.1259053   0.2180744  -0.0763946), wk =   0.0078125
        k(   51) = (   0.1259053   0.3634573  -0.0000001), wk =   0.0078125
        k(   52) = (   0.1259052   0.3634573   0.0763945), wk =   0.0078125
        k(   53) = (   0.1259052   0.3634573   0.1527890), wk =   0.0078125
        k(   54) = (   0.1259052   0.3634573   0.2291836), wk =   0.0078125
        k(   55) = (   0.1259053   0.3634573  -0.3055783), wk =   0.0078125
        k(   56) = (   0.1259053   0.3634573  -0.2291837), wk =   0.0078125
        k(   57) = (   0.1259053   0.3634573  -0.1527892), wk =   0.0078125
        k(   58) = (   0.1259053   0.3634573  -0.0763946), wk =   0.0078125
        k(   59) = (   0.1259053   0.5088402  -0.0000001), wk =   0.0078125
        k(   60) = (   0.1259052   0.5088402   0.0763945), wk =   0.0078125
[...]
        k(  246) = (  -0.5036210   0.0000000  -0.1527890), wk =   0.0078125
        k(  247) = (  -0.5036211   0.0000000  -0.0763944), wk =   0.0078125
        k(  248) = (  -0.5036211   0.1453829   0.0000001), wk =   0.0078125
        k(  249) = (  -0.5036211   0.1453829   0.0763947), wk =   0.0078125
        k(  250) = (  -0.5036211   0.1453829   0.1527892), wk =   0.0078125
        k(  251) = (  -0.5036211   0.1453829   0.2291838), wk =   0.0078125
        k(  252) = (  -0.5036210   0.1453829  -0.3055781), wk =   0.0078125
        k(  253) = (  -0.5036210   0.1453829  -0.2291835), wk =   0.0078125
        k(  254) = (  -0.5036210   0.1453829  -0.1527890), wk =   0.0078125
        k(  255) = (  -0.5036211   0.1453829  -0.0763944), wk =   0.0078125
        k(  256) = (  -0.5036211  -0.8722975   0.0000002), wk =   0.0039062
        k(  257) = (  -0.5036211  -0.8722976   0.0763948), wk =   0.0078125
        k(  258) = (  -0.5036211  -0.8722976   0.1527893), wk =   0.0078125
        k(  259) = (  -0.5036211  -0.8722976   0.2291839), wk =   0.0078125
        k(  260) = (  -0.5036210  -0.8722975  -0.3055780), wk =   0.0039062

                       cryst. coord.
        k(    1) = (   0.0000000   0.0000000   0.0000000), wk =   0.0039062
        k(    2) = (   0.0000000  -0.0000000   0.1250000), wk =   0.0078125
        k(    3) = (   0.0000000  -0.0000000   0.2500000), wk =   0.0078125
        k(    4) = (   0.0000000  -0.0000000   0.3750000), wk =   0.0078125
        k(    5) = (  -0.0000000   0.0000000  -0.5000000), wk =   0.0039062
        k(    6) = (  -0.0000000   0.1250000  -0.0000000), wk =   0.0078125
        k(    7) = (   0.0000000   0.1250000   0.1250000), wk =   0.0078125
        k(    8) = (  -0.0000000   0.1250000   0.2500000), wk =   0.0078125
        k(    9) = (   0.0000000   0.1250000   0.3750000), wk =   0.0078125
        k(   10) = (  -0.0000000   0.1250000  -0.5000000), wk =   0.0078125
        k(   11) = (   0.0000000   0.1250000  -0.3750000), wk =   0.0078125
        k(   12) = (   0.0000000   0.1250000  -0.2500000), wk =   0.0078125
        k(   13) = (   0.0000000   0.1250000  -0.1250000), wk =   0.0078125
        k(   14) = (  -0.0000000   0.2500000  -0.0000000), wk =   0.0078125
        k(   15) = (   0.0000000   0.2500000   0.1250000), wk =   0.0078125
        k(   16) = (   0.0000000   0.2500000   0.2500000), wk =   0.0078125
        k(   17) = (  -0.0000000   0.2500000   0.3750000), wk =   0.0078125
        k(   18) = (   0.0000000   0.2500000  -0.5000000), wk =   0.0078125
        k(   19) = (  -0.0000000   0.2500000  -0.3750000), wk =   0.0078125
        k(   20) = (   0.0000000   0.2500000  -0.2500000), wk =   0.0078125
        k(   21) = (   0.0000000   0.2500000  -0.1250000), wk =   0.0078125
        k(   22) = (  -0.0000000   0.3750000  -0.0000000), wk =   0.0078125
        k(   23) = (  -0.0000000   0.3750000   0.1250000), wk =   0.0078125
        k(   24) = (   0.0000000   0.3750000   0.2500000), wk =   0.0078125
        k(   25) = (  -0.0000000   0.3750000   0.3750000), wk =   0.0078125
        k(   26) = (   0.0000000   0.3750000  -0.5000000), wk =   0.0078125
        k(   27) = (   0.0000000   0.3750000  -0.3750000), wk =   0.0078125
        k(   28) = (   0.0000000   0.3750000  -0.2500000), wk =   0.0078125
        k(   29) = (   0.0000000   0.3750000  -0.1250000), wk =   0.0078125
        k(   30) = (   0.0000000  -0.5000000   0.0000000), wk =   0.0039062
        k(   31) = (   0.0000000  -0.5000000   0.1250000), wk =   0.0078125
        k(   32) = (  -0.0000000  -0.5000000   0.2500000), wk =   0.0078125
        k(   33) = (   0.0000000  -0.5000000   0.3750000), wk =   0.0078125
        k(   34) = (  -0.0000000  -0.5000000  -0.5000000), wk =   0.0039062
        k(   35) = (   0.1250000  -0.0000000   0.0000000), wk =   0.0078125
        k(   36) = (   0.1250000  -0.0000000   0.1250000), wk =   0.0078125
        k(   37) = (   0.1250000  -0.0000000   0.2500000), wk =   0.0078125
        k(   38) = (   0.1250000  -0.0000000   0.3750000), wk =   0.0078125
        k(   39) = (   0.1250000  -0.0000000  -0.5000000), wk =   0.0078125
        k(   40) = (   0.1250000   0.0000000  -0.3750000), wk =   0.0078125
        k(   41) = (   0.1250000  -0.0000000  -0.2500000), wk =   0.0078125
        k(   42) = (   0.1250000  -0.0000000  -0.1250000), wk =   0.0078125
        k(   43) = (   0.1250000   0.1250000   0.0000000), wk =   0.0078125
        k(   44) = (   0.1250000   0.1250000   0.1250000), wk =   0.0078125
        k(   45) = (   0.1250000   0.1250000   0.2500000), wk =   0.0078125
        k(   46) = (   0.1250000   0.1250000   0.3750000), wk =   0.0078125
        k(   47) = (   0.1250000   0.1250000  -0.5000000), wk =   0.0078125
        k(   48) = (   0.1250000   0.1250000  -0.3750000), wk =   0.0078125
        k(   49) = (   0.1250000   0.1250000  -0.2500000), wk =   0.0078125
        k(   50) = (   0.1250000   0.1250000  -0.1250000), wk =   0.0078125
        k(   51) = (   0.1250000   0.2500000   0.0000000), wk =   0.0078125
        k(   52) = (   0.1250000   0.2500000   0.1250000), wk =   0.0078125
        k(   53) = (   0.1250000   0.2500000   0.2500000), wk =   0.0078125
        k(   54) = (   0.1250000   0.2500000   0.3750000), wk =   0.0078125
        k(   55) = (   0.1250000   0.2500000  -0.5000000), wk =   0.0078125
        k(   56) = (   0.1250000   0.2500000  -0.3750000), wk =   0.0078125
        k(   57) = (   0.1250000   0.2500000  -0.2500000), wk =   0.0078125
        k(   58) = (   0.1250000   0.2500000  -0.1250000), wk =   0.0078125
        k(   59) = (   0.1250000   0.3750000   0.0000000), wk =   0.0078125
        k(   60) = (   0.1250000   0.3750000   0.1250000), wk =   0.0078125
[...]
        k(  246) = (  -0.5000000   0.2500000  -0.2500000), wk =   0.0078125
        k(  247) = (  -0.5000000   0.2500000  -0.1250000), wk =   0.0078125
        k(  248) = (  -0.5000000   0.3750000  -0.0000000), wk =   0.0078125
        k(  249) = (  -0.5000000   0.3750000   0.1250000), wk =   0.0078125
        k(  250) = (  -0.5000000   0.3750000   0.2500000), wk =   0.0078125
        k(  251) = (  -0.5000000   0.3750000   0.3750000), wk =   0.0078125
        k(  252) = (  -0.5000000   0.3750000  -0.5000000), wk =   0.0078125
        k(  253) = (  -0.5000000   0.3750000  -0.3750000), wk =   0.0078125
        k(  254) = (  -0.5000000   0.3750000  -0.2500000), wk =   0.0078125
        k(  255) = (  -0.5000000   0.3750000  -0.1250000), wk =   0.0078125
        k(  256) = (  -0.5000000  -0.5000000  -0.0000000), wk =   0.0039062
        k(  257) = (  -0.5000000  -0.5000000   0.1250000), wk =   0.0078125
        k(  258) = (  -0.5000000  -0.5000000   0.2500000), wk =   0.0078125
        k(  259) = (  -0.5000000  -0.5000000   0.3750000), wk =   0.0078125
        k(  260) = (  -0.5000000  -0.5000000  -0.5000000), wk =   0.0039062

     Check: negative core charge=   -0.000003

     Initial potential from superposition of free atoms

     starting charge   51.99974, renormalised to   52.00000
     Starting wfcs are   34 randomized atomic wfcs

     Self-consistent Calculation

[...]

     total energy              =    -987.07971571 Ry
     Harris-Foulkes estimate   =    -987.07971480 Ry
     estimated scf accuracy    <       0.00000244 Ry

     iteration #  7     ecut=    80.00 Ry     beta= 0.50
     Davidson diagonalization with overlap
     ethr =  4.69E-09,  avg # of iterations =  2.0

     End of self-consistent calculation

[...]

          k = 0.3777 0.0727-0.0764 (  3838 PWs)   bands (ev):

[...]

          k =-0.5036-0.8723-0.3056 (  3844 PWs)   bands (ev):

  -114.3271-114.3271 -68.6904 -68.6904 -68.6885 -68.6885 -68.6789 -68.6789
    -8.4082  -8.4082   2.5781   2.5781   3.5170   3.5170   3.5340   3.5340
     4.4376   4.4376   4.5136   4.5136   5.0102   5.0102   7.2892   7.2892
     7.3251   7.3252

     occupation numbers
     1.0000   1.0000   1.0000   1.0000   1.0000   1.0000   1.0000   1.0000
     1.0000   1.0000   1.0000   1.0000   1.0000   1.0000   1.0000   1.0000
     1.0000   1.0000   1.0000   1.0000   1.0000   1.0000   1.0000   1.0000
     1.0000   1.0000

     highest occupied level (ev):     8.7983

!    total energy              =    -987.07971594 Ry
     Harris-Foulkes estimate   =    -987.07971593 Ry
     estimated scf accuracy    <          9.4E-09 Ry

     The total energy is the sum of the following terms:

     one-electron contribution =    -802.97839521 Ry
     hartree contribution      =     422.91055731 Ry
     xc contribution           =     -98.07667315 Ry
     ewald contribution        =    -508.93520488 Ry

     convergence has been achieved in   7 iterations

     Forces acting on atoms (cartesian axes, Ry/au):

     atom    1 type  2   force =    -0.00000129    0.00000101   -0.00685479
     atom    2 type  2   force =    -0.00000022    0.00000060   -0.00685579
     atom    3 type  1   force =    -0.00000026   -0.00000051    0.00685210
     atom    4 type  1   force =     0.00000177   -0.00000111    0.00685848
     The non-local contrib.  to forces
     atom    1 type  2   force =     0.00000185   -0.00000312   -0.00436451
     atom    2 type  2   force =     0.00000105    0.00000106   -0.00436371
     atom    3 type  1   force =     0.00000201   -0.00000342    0.00167244
     atom    4 type  1   force =     0.00000369   -0.00000219    0.00167410
     The ionic contribution  to forces
     atom    1 type  2   force =    -0.00002362    0.00004138    0.17573263
     atom    2 type  2   force =    -0.00000977   -0.00000978    0.17573985
     atom    3 type  1   force =     0.00000980   -0.00001156   -0.17573464
     atom    4 type  1   force =     0.00002359   -0.00002005   -0.17573783
     The local contribution  to forces
     atom    1 type  2   force =     0.00002012   -0.00003735   -0.17836798
     atom    2 type  2   force =     0.00000821    0.00000939   -0.17837437
     atom    3 type  1   force =    -0.00001224    0.00001460    0.18107079
     atom    4 type  1   force =    -0.00002569    0.00002094    0.18105997
     The core correction contribution to forces
     atom    1 type  2   force =    -0.00000002    0.00000002    0.00005054
     atom    2 type  2   force =    -0.00000001   -0.00000001    0.00005053
     atom    3 type  1   force =     0.00000000    0.00000000    0.00000000
     atom    4 type  1   force =     0.00000000    0.00000000    0.00000000
     The Hubbard contrib.    to forces
     atom    1 type  2   force =     0.00000000    0.00000000    0.00000000
     atom    2 type  2   force =     0.00000000    0.00000000    0.00000000
     atom    3 type  1   force =     0.00000000    0.00000000    0.00000000
     atom    4 type  1   force =     0.00000000    0.00000000    0.00000000
     The SCF correction term to forces
     atom    1 type  2   force =     0.00000000    0.00000000    0.00000000
     atom    2 type  2   force =     0.00000000    0.00000000    0.00000000
     atom    3 type  1   force =     0.00000000    0.00000000    0.00000000
     atom    4 type  1   force =     0.00000000    0.00000000    0.00000000

     Total force =     0.000000     Total SCF correction =     0.000000

     Computing stress (Cartesian axis) and pressure

          total   stress  (Ry/bohr**3)                   (kbar)     P=   -0.80
  -0.00000625   0.00000000  -0.00000001         -0.92      0.00     -0.00
   0.00000000  -0.00000624   0.00000000          0.00     -0.92      0.00
  -0.00000001   0.00000000  -0.00000384         -0.00      0.00     -0.57

     kinetic stress (kbar)  33936.77     -0.00      0.00
                               -0.00  33936.77     -0.00
                                0.00     -0.00  33865.00

     local   stress (kbar)  -2404.50     -0.03      0.03
                               -0.03  -2404.63     -0.09
                                0.03     -0.09  -8928.27

     nonloc. stress (kbar)  -1694.97     -0.00      0.00
                               -0.00  -1694.98      0.00
                                0.00      0.00  -1666.37

     hartree stress (kbar)  64172.08      0.01     -0.01
                                0.01  64172.14      0.04
                               -0.01      0.04  66900.77

     exc-cor stress (kbar) -14162.14      0.00      0.00
                                0.00 -14162.14      0.00
                                0.00      0.00 -14160.17

     corecor stress (kbar)   -249.32      0.00      0.00
                                0.00   -249.32      0.00
                                0.00      0.00   -249.14

     ewald   stress (kbar) -79598.83      0.02     -0.02
                                0.02 -79598.75      0.06
                               -0.02      0.06 -75762.39

     hubbard stress (kbar)      0.00      0.00      0.00
                                0.00      0.00      0.00
                                0.00      0.00      0.00

     london  stress (kbar)      0.00      0.00      0.00
                                0.00      0.00      0.00
                                0.00      0.00      0.00

     DFT-D3  stress (kbar)      0.00      0.00      0.00
                                0.00      0.00      0.00
                                0.00      0.00      0.00

     XDM     stress (kbar)      0.00      0.00      0.00
                                0.00      0.00      0.00
                                0.00      0.00      0.00

     dft-nl  stress (kbar)      0.00      0.00      0.00
                                0.00      0.00      0.00
                                0.00      0.00      0.00

     TS-vdW  stress (kbar)      0.00      0.00      0.00
                                0.00      0.00      0.00
                                0.00      0.00      0.00

     Writing output data file ZnO.save/

     General routines

     Parallel routines

   This run was terminated on:  19:18:28   7Jun2022

   JOB DONE.