     Program PWSCF v.6.4.1 starts on 16Jun2022 at 15:39:41

     K-points division:     npool     =       4
     R & G space division:  proc/nbgrp/npool/nimage =      16
     Waiting for input...
     Reading input from standard input

     Current dimensions of program PWSCF are:
     Max number of different atomic species (ntypx) = 10
     Max number of k-points (npk) =  40000
     Max angular momentum in pseudopotentials (lmaxx) =  3

NOTICE: Bravais lattice has wrong number ( 7) of symmetries - symmetries are disabled

     bravais-lattice index     =            0
     lattice parameter (alat)  =       6.1664  a.u.
     unit-cell volume          =     321.5728 (a.u.)^3
     number of atoms/cell      =            4
     number of atomic types    =            2
     number of electrons       =        32.00
     number of Kohn-Sham states=           16
     kinetic-energy cutoff     =      80.0000  Ry
     charge density cutoff     =     600.0000  Ry
     convergence threshold     =      1.0E-06
     mixing beta               =       0.5000
     number of iterations used =            8  plain     mixing
     Exchange-correlation      = SLA  PW   PSX  PSC ( 1  4 10  8 0 0)
     nstep                     =          200

     celldm(1)=   6.166394  celldm(2)=   0.000000  celldm(3)=   0.000000
     celldm(4)=   0.000000  celldm(5)=   0.000000  celldm(6)=   0.000000

     crystal axes: (cart. coord. in units of alat)
               a(1) = (   1.000000   0.000000   0.000000 )
               a(2) = (  -0.500000   0.866026   0.000000 )
               a(3) = (   0.000000   0.000000   1.583634 )

     reciprocal axes: (cart. coord. in units 2 pi/alat)
               b(1) = (  1.000000  0.577350 -0.000000 )
               b(2) = ( -0.000000  1.154700 -0.000000 )
               b(3) = ( -0.000000 -0.000000  0.631459 )

     PseudoPot. # 1 for Mg read from file:
     ./GBRV_PBEsol/mg_pbesol_v1.4.uspp.F.UPF
     MD5 check sum: 4059f37963cf5867752dbf5ab2400678
     Pseudo is Ultrasoft, Zval = 10.0
     Generated by new atomic code, or converted to UPF format
     Using radial grid of  821 points,  7 beta functions with:
                l(1) =   0
                l(2) =   0
                l(3) =   0
                l(4) =   1
                l(5) =   1
                l(6) =   2
                l(7) =   2
     Q(r) pseudized with  8 coefficients,  rinner =    1.200   1.200   1.200
                                                       1.200   1.200

     PseudoPot. # 2 for O  read from file:
     ./GBRV_PBEsol/o_pbesol_v1.2.uspp.F.UPF
     MD5 check sum: 501638753501ef6325af9037351f7734
     Pseudo is Ultrasoft + core correction, Zval =  6.0
     Generated by new atomic code, or converted to UPF format
     Using radial grid of  737 points,  5 beta functions with:
                l(1) =   0
                l(2) =   0
                l(3) =   1
                l(4) =   1
                l(5) =   2
     Q(r) pseudized with  8 coefficients,  rinner =    0.900   0.900   0.900
                                                       0.900   0.900

     atomic species   valence    mass     pseudopotential
        Mg            10.00    24.30500     Mg( 1.00)
        O              6.00    15.99900     O ( 1.00)

     No symmetry found

                                    s                        frac. trans.

      isym =  1     identity

 cryst.   s( 1) = (     1          0          0      )
                  (     0          1          0      )
                  (     0          0          1      )

 cart.    s( 1) = (  1.0000000 -0.0000000 -0.0000000 )
                  (  0.0000000  1.0000000 -0.0000000 )
                  (  0.0000000  0.0000000  1.0000000 )

   Cartesian axes

     site n.     atom                  positions (alat units)
         1           O   tau(   1) = (   0.5000002   0.2886756   0.0116333  )
         2           O   tau(   2) = (   0.0000003   0.5773498   0.8034500  )
         3           Mg  tau(   3) = (   0.5000003   0.2886752   0.9919156  )
         4           Mg  tau(   4) = (   0.0000003   0.5773518   1.7837323  )

   Crystallographic axes

     site n.     atom                  positions (cryst. coord.)
         1           O   tau(   1) = (  0.6666670  0.3333337  0.0073459  )
         2           O   tau(   2) = (  0.3333329  0.6666657  0.5073458  )
         3           Mg  tau(   3) = (  0.6666664  0.3333329  0.6263540  )
         4           Mg  tau(   4) = (  0.3333336  0.6666677  1.1263539  )

     number of k points=   260
                       cart. coord. in units 2pi/alat
        k(    1) = (   0.0000000   0.0000000   0.0000000), wk =   0.0039062
        k(    2) = (  -0.0000000  -0.0000000   0.0789324), wk =   0.0078125
        k(    3) = (  -0.0000000  -0.0000000   0.1578648), wk =   0.0078125
        k(    4) = (  -0.0000001  -0.0000001   0.2367972), wk =   0.0078125
        k(    5) = (   0.0000001   0.0000001  -0.3157296), wk =   0.0039062
        k(    6) = (  -0.0000000   0.1443375  -0.0000000), wk =   0.0078125
        k(    7) = (  -0.0000000   0.1443375   0.0789324), wk =   0.0078125
        k(    8) = (  -0.0000001   0.1443375   0.1578647), wk =   0.0078125
        k(    9) = (  -0.0000001   0.1443375   0.2367971), wk =   0.0078125
        k(   10) = (   0.0000000   0.1443376  -0.3157296), wk =   0.0078125
        k(   11) = (   0.0000000   0.1443376  -0.2367972), wk =   0.0078125
        k(   12) = (   0.0000000   0.1443376  -0.1578648), wk =   0.0078125
        k(   13) = (  -0.0000000   0.1443375  -0.0789324), wk =   0.0078125
        k(   14) = (  -0.0000000   0.2886750  -0.0000001), wk =   0.0078125
        k(   15) = (  -0.0000001   0.2886750   0.0789323), wk =   0.0078125
        k(   16) = (  -0.0000001   0.2886750   0.1578647), wk =   0.0078125
        k(   17) = (  -0.0000001   0.2886750   0.2367971), wk =   0.0078125
        k(   18) = (   0.0000000   0.2886751  -0.3157296), wk =   0.0078125
        k(   19) = (   0.0000000   0.2886751  -0.2367972), wk =   0.0078125
        k(   20) = (  -0.0000000   0.2886751  -0.1578649), wk =   0.0078125
        k(   21) = (  -0.0000000   0.2886751  -0.0789325), wk =   0.0078125
        k(   22) = (  -0.0000001   0.4330126  -0.0000001), wk =   0.0078125
        k(   23) = (  -0.0000001   0.4330125   0.0789323), wk =   0.0078125
        k(   24) = (  -0.0000001   0.4330125   0.1578647), wk =   0.0078125
        k(   25) = (  -0.0000001   0.4330125   0.2367971), wk =   0.0078125
        k(   26) = (   0.0000000   0.4330126  -0.3157297), wk =   0.0078125
        k(   27) = (  -0.0000000   0.4330126  -0.2367973), wk =   0.0078125
        k(   28) = (  -0.0000000   0.4330126  -0.1578649), wk =   0.0078125
        k(   29) = (  -0.0000000   0.4330126  -0.0789325), wk =   0.0078125
        k(   30) = (   0.0000001  -0.5773501   0.0000002), wk =   0.0039062
        k(   31) = (   0.0000001  -0.5773501   0.0789325), wk =   0.0078125
        k(   32) = (   0.0000001  -0.5773501   0.1578649), wk =   0.0078125
        k(   33) = (   0.0000000  -0.5773501   0.2367973), wk =   0.0078125
        k(   34) = (   0.0000002  -0.5773500  -0.3157294), wk =   0.0039062
        k(   35) = (   0.1250000   0.0721687  -0.0000000), wk =   0.0078125
        k(   36) = (   0.1250000   0.0721687   0.0789323), wk =   0.0078125
        k(   37) = (   0.1250000   0.0721687   0.1578647), wk =   0.0078125
        k(   38) = (   0.1249999   0.0721687   0.2367971), wk =   0.0078125
        k(   39) = (   0.1250001   0.0721688  -0.3157296), wk =   0.0078125
        k(   40) = (   0.1250000   0.0721688  -0.2367972), wk =   0.0078125
        k(   41) = (   0.1250000   0.0721688  -0.1578648), wk =   0.0078125
        k(   42) = (   0.1250000   0.0721688  -0.0789324), wk =   0.0078125
        k(   43) = (   0.1250000   0.2165063  -0.0000001), wk =   0.0078125
        k(   44) = (   0.1249999   0.2165062   0.0789323), wk =   0.0078125
        k(   45) = (   0.1249999   0.2165062   0.1578647), wk =   0.0078125
        k(   46) = (   0.1249999   0.2165062   0.2367971), wk =   0.0078125
        k(   47) = (   0.1250000   0.2165063  -0.3157296), wk =   0.0078125
        k(   48) = (   0.1250000   0.2165063  -0.2367973), wk =   0.0078125
        k(   49) = (   0.1250000   0.2165063  -0.1578649), wk =   0.0078125
        k(   50) = (   0.1250000   0.2165063  -0.0789325), wk =   0.0078125
        k(   51) = (   0.1249999   0.3608438  -0.0000001), wk =   0.0078125
        k(   52) = (   0.1249999   0.3608438   0.0789323), wk =   0.0078125
        k(   53) = (   0.1249999   0.3608437   0.1578647), wk =   0.0078125
        k(   54) = (   0.1249999   0.3608437   0.2367970), wk =   0.0078125
        k(   55) = (   0.1250000   0.3608439  -0.3157297), wk =   0.0078125
        k(   56) = (   0.1250000   0.3608438  -0.2367973), wk =   0.0078125
        k(   57) = (   0.1250000   0.3608438  -0.1578649), wk =   0.0078125
        k(   58) = (   0.1250000   0.3608438  -0.0789325), wk =   0.0078125
        k(   59) = (   0.1249999   0.5051813  -0.0000002), wk =   0.0078125
        k(   60) = (   0.1249999   0.5051813   0.0789322), wk =   0.0078125
[...]
        k(  246) = (  -0.5000000   0.0000001  -0.1578647), wk =   0.0078125
        k(  247) = (  -0.5000000   0.0000001  -0.0789323), wk =   0.0078125
        k(  248) = (  -0.5000000   0.1443376   0.0000001), wk =   0.0078125
        k(  249) = (  -0.5000000   0.1443376   0.0789325), wk =   0.0078125
        k(  250) = (  -0.5000001   0.1443376   0.1578649), wk =   0.0078125
        k(  251) = (  -0.5000001   0.1443375   0.2367972), wk =   0.0078125
        k(  252) = (  -0.5000000   0.1443377  -0.3157295), wk =   0.0078125
        k(  253) = (  -0.5000000   0.1443377  -0.2367971), wk =   0.0078125
        k(  254) = (  -0.5000000   0.1443376  -0.1578647), wk =   0.0078125
        k(  255) = (  -0.5000000   0.1443376  -0.0789323), wk =   0.0078125
        k(  256) = (  -0.4999999  -0.8660250   0.0000003), wk =   0.0039062
        k(  257) = (  -0.4999999  -0.8660251   0.0789327), wk =   0.0078125
        k(  258) = (  -0.4999999  -0.8660251   0.1578651), wk =   0.0078125
        k(  259) = (  -0.4999999  -0.8660251   0.2367975), wk =   0.0078125
        k(  260) = (  -0.4999998  -0.8660249  -0.3157292), wk =   0.0039062

                       cryst. coord.
        k(    1) = (   0.0000000   0.0000000   0.0000000), wk =   0.0039062
        k(    2) = (  -0.0000000   0.0000000   0.1250000), wk =   0.0078125
        k(    3) = (  -0.0000000   0.0000000   0.2500000), wk =   0.0078125
        k(    4) = (  -0.0000000   0.0000000   0.3750000), wk =   0.0078125
        k(    5) = (   0.0000000  -0.0000000  -0.5000000), wk =   0.0039062
        k(    6) = (   0.0000000   0.1250000   0.0000000), wk =   0.0078125
        k(    7) = (   0.0000000   0.1250000   0.1250000), wk =   0.0078125
        k(    8) = (  -0.0000000   0.1250000   0.2500000), wk =   0.0078125
        k(    9) = (  -0.0000000   0.1250000   0.3750000), wk =   0.0078125
        k(   10) = (   0.0000000   0.1250000  -0.5000000), wk =   0.0078125
        k(   11) = (  -0.0000000   0.1250000  -0.3750000), wk =   0.0078125
[...]
        k(   21) = (  -0.0000000   0.2885918  -0.0788911), wk =   0.0078125
        k(   22) = (  -0.0000001   0.4328877   0.0000001), wk =   0.0078125
        k(   23) = (  -0.0000001   0.4328877   0.0788912), wk =   0.0078125
        k(   24) = (  -0.0000000   0.4328877   0.1577824), wk =   0.0078125
        k(   25) = (  -0.0000000   0.4328877   0.2366736), wk =   0.0078125
        k(   26) = (  -0.0000001   0.4328877  -0.3155647), wk =   0.0078125
        k(   27) = (  -0.0000001   0.4328877  -0.2366735), wk =   0.0078125
        k(   28) = (  -0.0000001   0.4328877  -0.1577823), wk =   0.0078125
        k(   29) = (  -0.0000001   0.4328877  -0.0788911), wk =   0.0078125
        k(   30) = (   0.0000001  -0.5771836  -0.0000001), wk =   0.0039062
        k(   31) = (   0.0000001  -0.5771836   0.0788911), wk =   0.0078125
        k(   32) = (   0.0000001  -0.5771836   0.1577823), wk =   0.0078125
        k(   33) = (   0.0000001  -0.5771836   0.2366735), wk =   0.0078125
        k(   34) = (   0.0000001  -0.5771837  -0.3155648), wk =   0.0039062
        k(   35) = (   0.1249639   0.0721479   0.0000000), wk =   0.0078125
        k(   36) = (   0.1249639   0.0721479   0.0788912), wk =   0.0078125
        k(   37) = (   0.1249639   0.0721480   0.1577824), wk =   0.0078125
        k(   38) = (   0.1249639   0.0721480   0.2366736), wk =   0.0078125
        k(   39) = (   0.1249639   0.0721479  -0.3155647), wk =   0.0078125
        k(   40) = (   0.1249639   0.0721479  -0.2366735), wk =   0.0078125
        k(   41) = (   0.1249639   0.0721479  -0.1577823), wk =   0.0078125
        k(   42) = (   0.1249639   0.0721479  -0.0788912), wk =   0.0078125
        k(   43) = (   0.1249639   0.2164438   0.0000000), wk =   0.0078125
        k(   44) = (   0.1249639   0.2164438   0.0788912), wk =   0.0078125
        k(   45) = (   0.1249639   0.2164439   0.1577824), wk =   0.0078125
        k(   46) = (   0.1249639   0.2164439   0.2366736), wk =   0.0078125
        k(   47) = (   0.1249639   0.2164438  -0.3155647), wk =   0.0078125
        k(   48) = (   0.1249639   0.2164438  -0.2366735), wk =   0.0078125
        k(   49) = (   0.1249639   0.2164438  -0.1577823), wk =   0.0078125
        k(   50) = (   0.1249639   0.2164438  -0.0788911), wk =   0.0078125
        k(   51) = (   0.1249639   0.3607397   0.0000001), wk =   0.0078125
        k(   52) = (   0.1249639   0.3607398   0.0788912), wk =   0.0078125
        k(   53) = (   0.1249639   0.3607398   0.1577824), wk =   0.0078125
        k(   54) = (   0.1249639   0.3607398   0.2366736), wk =   0.0078125
        k(   55) = (   0.1249639   0.3607397  -0.3155647), wk =   0.0078125
        k(   56) = (   0.1249639   0.3607397  -0.2366735), wk =   0.0078125
        k(   57) = (   0.1249639   0.3607397  -0.1577823), wk =   0.0078125
        k(   58) = (   0.1249639   0.3607397  -0.0788911), wk =   0.0078125
        k(   59) = (   0.1249639   0.5050356   0.0000001), wk =   0.0078125
        k(   60) = (   0.1249639   0.5050357   0.0788913), wk =   0.0078125
[...]
        k(  246) = (  -0.4998558   0.0000000  -0.1577824), wk =   0.0078125
        k(  247) = (  -0.4998558   0.0000001  -0.0788912), wk =   0.0078125
        k(  248) = (  -0.4998558   0.1442960  -0.0000000), wk =   0.0078125
        k(  249) = (  -0.4998558   0.1442960   0.0788912), wk =   0.0078125
        k(  250) = (  -0.4998558   0.1442960   0.1577824), wk =   0.0078125
        k(  251) = (  -0.4998558   0.1442960   0.2366735), wk =   0.0078125
        k(  252) = (  -0.4998558   0.1442959  -0.3155647), wk =   0.0078125
        k(  253) = (  -0.4998558   0.1442959  -0.2366735), wk =   0.0078125
        k(  254) = (  -0.4998558   0.1442959  -0.1577824), wk =   0.0078125
        k(  255) = (  -0.4998558   0.1442960  -0.0788912), wk =   0.0078125
        k(  256) = (  -0.4998557  -0.8657754  -0.0000001), wk =   0.0039062
        k(  257) = (  -0.4998557  -0.8657753   0.0788910), wk =   0.0078125
        k(  258) = (  -0.4998557  -0.8657753   0.1577822), wk =   0.0078125
        k(  259) = (  -0.4998557  -0.8657753   0.2366734), wk =   0.0078125
        k(  260) = (  -0.4998557  -0.8657754  -0.3155649), wk =   0.0039062

                       cryst. coord.
        k(    1) = (   0.0000000   0.0000000   0.0000000), wk =   0.0039062
        k(    2) = (  -0.0000000   0.0000000   0.1250000), wk =   0.0078125
        k(    3) = (  -0.0000000   0.0000000   0.2500000), wk =   0.0078125
        k(    4) = (  -0.0000000   0.0000000   0.3750000), wk =   0.0078125
        k(    5) = (   0.0000000  -0.0000000  -0.5000000), wk =   0.0039062
        k(    6) = (  -0.0000000   0.1250000   0.0000000), wk =   0.0078125
        k(    7) = (   0.0000000   0.1250000   0.1250000), wk =   0.0078125
        k(    8) = (  -0.0000000   0.1250000   0.2500000), wk =   0.0078125
        k(    9) = (  -0.0000000   0.1250000   0.3750000), wk =   0.0078125
        k(   10) = (   0.0000000   0.1250000  -0.5000000), wk =   0.0078125
        k(   11) = (   0.0000000   0.1250000  -0.3750000), wk =   0.0078125
        k(   12) = (  -0.0000000   0.1250000  -0.2500000), wk =   0.0078125
        k(   13) = (  -0.0000000   0.1250000  -0.1250000), wk =   0.0078125
        k(   14) = (  -0.0000000   0.2500000   0.0000000), wk =   0.0078125
        k(   15) = (  -0.0000000   0.2500000   0.1250000), wk =   0.0078125
        k(   16) = (   0.0000000   0.2500000   0.2500000), wk =   0.0078125
        k(   17) = (  -0.0000000   0.2500000   0.3750000), wk =   0.0078125
        k(   18) = (  -0.0000000   0.2500000  -0.5000000), wk =   0.0078125
        k(   19) = (  -0.0000000   0.2500000  -0.3750000), wk =   0.0078125
        k(   20) = (  -0.0000000   0.2500000  -0.2500000), wk =   0.0078125
        k(   21) = (  -0.0000000   0.2500000  -0.1250000), wk =   0.0078125
        k(   22) = (  -0.0000000   0.3750000  -0.0000000), wk =   0.0078125
        k(   23) = (   0.0000000   0.3750000   0.1250000), wk =   0.0078125
        k(   24) = (  -0.0000000   0.3750000   0.2500000), wk =   0.0078125
        k(   25) = (  -0.0000000   0.3750000   0.3750000), wk =   0.0078125
        k(   26) = (  -0.0000000   0.3750000  -0.5000000), wk =   0.0078125
        k(   27) = (  -0.0000000   0.3750000  -0.3750000), wk =   0.0078125
        k(   28) = (  -0.0000000   0.3750000  -0.2500000), wk =   0.0078125
        k(   29) = (  -0.0000000   0.3750000  -0.1250000), wk =   0.0078125
        k(   30) = (   0.0000000  -0.5000000  -0.0000000), wk =   0.0039062
        k(   31) = (   0.0000000  -0.5000000   0.1250000), wk =   0.0078125
        k(   32) = (   0.0000000  -0.5000000   0.2500000), wk =   0.0078125
        k(   33) = (   0.0000000  -0.5000000   0.3750000), wk =   0.0078125
        k(   34) = (  -0.0000000  -0.5000000  -0.5000000), wk =   0.0039062
        k(   35) = (   0.1250000  -0.0000000   0.0000000), wk =   0.0078125
        k(   36) = (   0.1250000  -0.0000000   0.1250000), wk =   0.0078125
        k(   37) = (   0.1250000  -0.0000000   0.2500000), wk =   0.0078125
        k(   38) = (   0.1250000  -0.0000000   0.3750000), wk =   0.0078125
        k(   39) = (   0.1250000  -0.0000000  -0.5000000), wk =   0.0078125
        k(   40) = (   0.1250000   0.0000000  -0.3750000), wk =   0.0078125
        k(   41) = (   0.1250000   0.0000000  -0.2500000), wk =   0.0078125
        k(   42) = (   0.1250000  -0.0000000  -0.1250000), wk =   0.0078125
        k(   43) = (   0.1250000   0.1250000   0.0000000), wk =   0.0078125
        k(   44) = (   0.1250000   0.1250000   0.1250000), wk =   0.0078125
        k(   45) = (   0.1250000   0.1250000   0.2500000), wk =   0.0078125
        k(   46) = (   0.1250000   0.1250000   0.3750000), wk =   0.0078125
        k(   47) = (   0.1250000   0.1250000  -0.5000000), wk =   0.0078125
        k(   48) = (   0.1250000   0.1250000  -0.3750000), wk =   0.0078125
        k(   49) = (   0.1250000   0.1250000  -0.2500000), wk =   0.0078125
        k(   50) = (   0.1250000   0.1250000  -0.1250000), wk =   0.0078125
        k(   51) = (   0.1250000   0.2500000   0.0000000), wk =   0.0078125
        k(   52) = (   0.1250000   0.2500000   0.1250000), wk =   0.0078125
        k(   53) = (   0.1250000   0.2500000   0.2500000), wk =   0.0078125
        k(   54) = (   0.1250000   0.2500000   0.3750000), wk =   0.0078125
        k(   55) = (   0.1250000   0.2500000  -0.5000000), wk =   0.0078125
        k(   56) = (   0.1250000   0.2500000  -0.3750000), wk =   0.0078125
        k(   57) = (   0.1250000   0.2500000  -0.2500000), wk =   0.0078125
        k(   58) = (   0.1250000   0.2500000  -0.1250000), wk =   0.0078125
        k(   59) = (   0.1250000   0.3750000  -0.0000000), wk =   0.0078125
        k(   60) = (   0.1250000   0.3750000   0.1250000), wk =   0.0078125
[...]
        k(  246) = (  -0.5000000   0.2500000  -0.2500000), wk =   0.0078125
        k(  247) = (  -0.5000000   0.2500000  -0.1250000), wk =   0.0078125
        k(  248) = (  -0.5000000   0.3750000  -0.0000000), wk =   0.0078125
        k(  249) = (  -0.5000000   0.3750000   0.1250000), wk =   0.0078125
        k(  250) = (  -0.5000000   0.3750000   0.2500000), wk =   0.0078125
        k(  251) = (  -0.5000000   0.3750000   0.3750000), wk =   0.0078125
        k(  252) = (  -0.5000000   0.3750000  -0.5000000), wk =   0.0078125
        k(  253) = (  -0.5000000   0.3750000  -0.3750000), wk =   0.0078125
        k(  254) = (  -0.5000000   0.3750000  -0.2500000), wk =   0.0078125
        k(  255) = (  -0.5000000   0.3750000  -0.1250000), wk =   0.0078125
        k(  256) = (  -0.5000000  -0.5000000  -0.0000000), wk =   0.0039062
        k(  257) = (  -0.5000000  -0.5000000   0.1250000), wk =   0.0078125
        k(  258) = (  -0.5000000  -0.5000000   0.2500000), wk =   0.0078125
        k(  259) = (  -0.5000000  -0.5000000   0.3750000), wk =   0.0078125
        k(  260) = (  -0.5000000  -0.5000000  -0.5000000), wk =   0.0039062

     Check: negative core charge=   -0.000003

     Initial potential from superposition of free atoms

     starting charge   31.39954, renormalised to   32.00000
     Starting wfcs are   18 randomized atomic wfcs

     Self-consistent Calculation

[...]

     total energy              =    -315.17830761 Ry
     Harris-Foulkes estimate   =    -315.17830758 Ry
     estimated scf accuracy    <       0.00000002 Ry

     iteration #  9     ecut=    80.00 Ry     beta= 0.50
     Davidson diagonalization with overlap
     ethr =  4.74E-11,  avg # of iterations =  2.2

     End of self-consistent calculation

[...]

          k = 0.3749 0.0721-0.0789 (  3884 PWs)   bands (ev):

[...]

          k =-0.4999-0.8658-0.3156 (  3892 PWs)   bands (ev):

   -66.8702 -66.8702 -33.8812 -33.8812 -33.8503 -33.8503 -33.8493 -33.8493
   -10.7155 -10.7155   1.4588   1.4588   3.7389   3.7389   3.7545   3.7545

     occupation numbers
     1.0000   1.0000   1.0000   1.0000   1.0000   1.0000   1.0000   1.0000
     1.0000   1.0000   1.0000   1.0000   1.0000   1.0000   1.0000   1.0000

     highest occupied level (ev):     4.3720

!    total energy              =    -315.17830762 Ry
     Harris-Foulkes estimate   =    -315.17830761 Ry
     estimated scf accuracy    <          6.6E-11 Ry

     The total energy is the sum of the following terms:

     one-electron contribution =    -213.69091100 Ry
     hartree contribution      =     113.00226618 Ry
     xc contribution           =     -48.05222605 Ry
     ewald contribution        =    -166.43743676 Ry

     convergence has been achieved in   9 iterations

     Forces acting on atoms (cartesian axes, Ry/au):

     atom    1 type  2   force =    -0.00000026    0.00000031    0.00739463
     atom    2 type  2   force =    -0.00000009    0.00000062    0.00739495
     atom    3 type  1   force =     0.00000011   -0.00000034   -0.00739528
     atom    4 type  1   force =     0.00000025   -0.00000059   -0.00739429
     The non-local contrib.  to forces
     atom    1 type  2   force =    -0.00000022   -0.00000068   -0.00068608
     atom    2 type  2   force =    -0.00000003    0.00000192   -0.00068452
     atom    3 type  1   force =     0.00000070   -0.00000242   -0.03896000
     atom    4 type  1   force =     0.00000069    0.00000010   -0.03896067
     The ionic contribution  to forces
     atom    1 type  2   force =    -0.00000502    0.00001324    0.21593090
     atom    2 type  2   force =    -0.00000481    0.00000254    0.21593138
     atom    3 type  1   force =     0.00000550   -0.00001624   -0.21593184
     atom    4 type  1   force =     0.00000433    0.00000046   -0.21593043
     The local contribution  to forces
     atom    1 type  2   force =     0.00000497   -0.00001224   -0.20771604
     atom    2 type  2   force =     0.00000474   -0.00000381   -0.20771768
     atom    3 type  1   force =    -0.00000610    0.00001832    0.24749491
     atom    4 type  1   force =    -0.00000476   -0.00000116    0.24749285
     The core correction contribution to forces
     atom    1 type  2   force =     0.00000001   -0.00000000   -0.00012750
     atom    2 type  2   force =     0.00000000   -0.00000002   -0.00012751
     atom    3 type  1   force =     0.00000000    0.00000000    0.00000000
     atom    4 type  1   force =     0.00000000    0.00000000    0.00000000
     The Hubbard contrib.    to forces
     atom    1 type  2   force =     0.00000000    0.00000000    0.00000000
     atom    2 type  2   force =     0.00000000    0.00000000    0.00000000
     atom    3 type  1   force =     0.00000000    0.00000000    0.00000000
     atom    4 type  1   force =     0.00000000    0.00000000    0.00000000
     The SCF correction term to forces
     atom    1 type  2   force =     0.00000000    0.00000000    0.00000000
     atom    2 type  2   force =     0.00000000    0.00000000    0.00000000
     atom    3 type  1   force =     0.00000000    0.00000000    0.00000000
     atom    4 type  1   force =     0.00000000    0.00000000    0.00000000

     Total force =     0.000000     Total SCF correction =     0.000000

     Computing stress (Cartesian axis) and pressure

          total   stress  (Ry/bohr**3)                   (kbar)     P=   -0.65
  -0.00000538   0.00000000   0.00000001         -0.79      0.00      0.00
   0.00000000  -0.00000537   0.00000001          0.00     -0.79      0.00
   0.00000001   0.00000001  -0.00000255          0.00      0.00     -0.38

     kinetic stress (kbar)  18880.53     -0.00      0.00
                               -0.00  18880.53      0.00
                                0.00      0.00  18882.86

     local   stress (kbar)  -8025.60     -0.01     -0.01
                               -0.01  -8025.61      0.05
                               -0.01      0.05 -10827.83

     nonloc. stress (kbar)   5173.01      0.00     -0.00
                                0.00   5173.01     -0.00
                               -0.00     -0.00   5169.75

     hartree stress (kbar)  16797.23      0.00      0.01
                                0.00  16797.23     -0.02
                                0.01     -0.02  18042.20

     exc-cor stress (kbar)  -6707.93      0.00     -0.00
                                0.00  -6707.93     -0.00
                               -0.00     -0.00  -6707.68

     corecor stress (kbar)   -247.25      0.00     -0.00
                                0.00   -247.25      0.00
                               -0.00      0.00   -247.25

     ewald   stress (kbar) -25870.78      0.01      0.01
                                0.01 -25870.77     -0.03
                                0.01     -0.03 -24312.43

     hubbard stress (kbar)      0.00      0.00      0.00
                                0.00      0.00      0.00
                                0.00      0.00      0.00

     london  stress (kbar)      0.00      0.00      0.00
                                0.00      0.00      0.00
                                0.00      0.00      0.00

     DFT-D3  stress (kbar)      0.00      0.00      0.00
                                0.00      0.00      0.00
                                0.00      0.00      0.00

     XDM     stress (kbar)      0.00      0.00      0.00
                                0.00      0.00      0.00
                                0.00      0.00      0.00

     dft-nl  stress (kbar)      0.00      0.00      0.00
                                0.00      0.00      0.00
                                0.00      0.00      0.00

     TS-vdW  stress (kbar)      0.00      0.00      0.00
                                0.00      0.00      0.00
                                0.00      0.00      0.00

     Writing output data file ZnO.save/

     General routines

     Parallel routines

   This run was terminated on:  15:40:28  16Jun2022

   JOB DONE.