     Program PWSCF v.6.4.1 starts on 29Apr2021 at 14:44:39

     K-points division:     npool     =       4
     R & G space division:  proc/nbgrp/npool/nimage =      16
     Waiting for input...
     Reading input from standard input

     Current dimensions of program PWSCF are:
     Max number of different atomic species (ntypx) = 10
     Max number of k-points (npk) =  40000
     Max angular momentum in pseudopotentials (lmaxx) =  3

     bravais-lattice index     =            0
     lattice parameter (alat)  =      37.7945  a.u.
     unit-cell volume          =   16622.4977 (a.u.)^3
     number of atoms/cell      =           15
     number of atomic types    =            2
     number of electrons       =       168.00
     number of Kohn-Sham states=           84
     kinetic-energy cutoff     =      80.0000  Ry
     charge density cutoff     =     600.0000  Ry
     convergence threshold     =      1.0E-11
     mixing beta               =       0.5000
     number of iterations used =            8  plain     mixing
     Exchange-correlation      = SLA  PW   PSX  PSC ( 1  4 10  8 0 0)
     nstep                     =          200

     celldm(1)=  37.794523  celldm(2)=   0.000000  celldm(3)=   0.000000
     celldm(4)=   0.000000  celldm(5)=   0.000000  celldm(6)=   0.000000

     crystal axes: (cart. coord. in units of alat)
               a(1) = (   1.000000   0.000000   0.000000 )
               a(2) = (   0.000000   0.307900   0.000000 )
               a(3) = (   0.000000   0.000000   1.000000 )

     reciprocal axes: (cart. coord. in units 2 pi/alat)
               b(1) = (  1.000000  0.000000  0.000000 )
               b(2) = (  0.000000  3.247808  0.000000 )
               b(3) = (  0.000000  0.000000  1.000000 )

     PseudoPot. # 1 for Ga read from file:
     ./GBRV_PBEsol/ga_pbesol_v1.4.uspp.F.UPF
     MD5 check sum: c51a1280f7300f419a8cd4df5a064fc3
     Pseudo is Ultrasoft + core correction, Zval = 19.0
     Generated by new atomic code, or converted to UPF format
     Using radial grid of  871 points,  6 beta functions with:
                l(1) =   0
                l(2) =   0
                l(3) =   1
                l(4) =   1
                l(5) =   2
                l(6) =   2
     Q(r) pseudized with  8 coefficients,  rinner =    1.250   1.250   1.250
                                                       1.250   1.250

     PseudoPot. # 2 for Se read from file:
     ./GBRV_PBEsol/se_pbesol_v1.uspp.F.UPF
     MD5 check sum: a3b4745ad650bb7419ce2e0d5f176975
     Pseudo is Ultrasoft + core correction, Zval =  6.0
     Generated by new atomic code, or converted to UPF format
     Using radial grid of  877 points,  6 beta functions with:
                l(1) =   0
                l(2) =   0
                l(3) =   1
                l(4) =   1
                l(5) =   2
                l(6) =   2
     Q(r) pseudized with  8 coefficients,  rinner =    1.300   1.300   1.300
                                                       1.300   1.300

     atomic species   valence    mass     pseudopotential
        Ga            19.00    69.72300     Ga( 1.00)
        Se             6.00    78.97100     Se( 1.00)

     No symmetry found

                                    s                        frac. trans.

      isym =  1     identity

 cryst.   s( 1) = (     1          0          0      )
                  (     0          1          0      )
                  (     0          0          1      )

 cart.    s( 1) = (  1.0000000  0.0000000  0.0000000 )
                  (  0.0000000  1.0000000  0.0000000 )
                  (  0.0000000  0.0000000  1.0000000 )

   Cartesian axes

     site n.     atom                  positions (alat units)
         1           Ga  tau(   1) = (   0.5248346   0.0298543   0.6479391  )
         2           Ga  tau(   2) = (   0.4328083   0.2600300   0.4430852  )
         3           Ga  tau(   3) = (   0.6168898   0.2600301   0.4430982  )
         4           Ga  tau(   4) = (   0.4408536   0.1556555   0.5941859  )
         5           Ga  tau(   5) = (   0.6088233   0.1556556   0.5941979  )
         6           Ga  tau(   6) = (   0.5248515   0.0876637   0.4080430  )
         7           Se  tau(   7) = (   0.3667764   0.2214120   0.5282213  )
         8           Se  tau(   8) = (   0.6829096   0.2214123   0.5282438  )
         9           Se  tau(   9) = (   0.5248337   0.2188327   0.6593934  )
        10           Se  tau(  10) = (   0.5248533   0.2068109   0.3827584  )
        11           Se  tau(  11) = (   0.5248430   0.0880042   0.5301062  )
        12           Se  tau(  12) = (   0.4150389   0.0698880   0.6707820  )
        13           Se  tau(  13) = (   0.6346271   0.0698881   0.6707976  )
        14           Se  tau(  14) = (   0.4163146   0.0483152   0.3800264  )
        15           Se  tau(  15) = (   0.6333922   0.0483151   0.3800415  )

   Crystallographic axes

     site n.     atom                  positions (cryst. coord.)
         1           Ga  tau(   1) = (  0.5248346  0.0969611  0.6479391  )
         2           Ga  tau(   2) = (  0.4328083  0.8445274  0.4430852  )
         3           Ga  tau(   3) = (  0.6168898  0.8445277  0.4430982  )
         4           Ga  tau(   4) = (  0.4408536  0.5055391  0.5941859  )
         5           Ga  tau(   5) = (  0.6088233  0.5055395  0.5941979  )
         6           Ga  tau(   6) = (  0.5248515  0.2847148  0.4080430  )
         7           Se  tau(   7) = (  0.3667764  0.7191035  0.5282213  )
         8           Se  tau(   8) = (  0.6829096  0.7191046  0.5282438  )
         9           Se  tau(   9) = (  0.5248337  0.7107267  0.6593934  )
        10           Se  tau(  10) = (  0.5248533  0.6716821  0.3827584  )
        11           Se  tau(  11) = (  0.5248430  0.2858208  0.5301062  )
        12           Se  tau(  12) = (  0.4150389  0.2269828  0.6707820  )
        13           Se  tau(  13) = (  0.6346271  0.2269831  0.6707976  )
        14           Se  tau(  14) = (  0.4163146  0.1569185  0.3800264  )
        15           Se  tau(  15) = (  0.6333922  0.1569183  0.3800415  )

     number of k points=     5
                       cart. coord. in units 2pi/alat
        k(    1) = (   0.0000000   0.0000000   0.0000000), wk =   0.2500000
        k(    2) = (   0.0000000   0.4059760   0.0000000), wk =   0.5000000
        k(    3) = (   0.0000000   0.8119519   0.0000000), wk =   0.5000000
        k(    4) = (   0.0000000   1.2179279   0.0000000), wk =   0.5000000
        k(    5) = (   0.0000000  -1.6239039   0.0000000), wk =   0.2500000

                       cryst. coord.
        k(    1) = (   0.0000000   0.0000000   0.0000000), wk =   0.2500000
        k(    2) = (   0.0000000   0.1250000   0.0000000), wk =   0.5000000
        k(    3) = (   0.0000000   0.2500000   0.0000000), wk =   0.5000000
        k(    4) = (   0.0000000   0.3750000   0.0000000), wk =   0.5000000
        k(    5) = (   0.0000000  -0.5000000   0.0000000), wk =   0.2500000

     Initial potential from superposition of free atoms

     starting charge  161.99940, renormalised to  168.00000

     negative rho (up, down):  4.970E-04 0.000E+00
     Starting wfcs are  108 randomized atomic wfcs

     Self-consistent Calculation

     iteration #  1     ecut=    80.00 Ry     beta= 0.50
     Davidson diagonalization with overlap
     ethr =  1.00E-02,  avg # of iterations =  3.0

     negative rho (up, down):  3.330E-05 0.000E+00

     total energy              =   -2868.74575288 Ry
     Harris-Foulkes estimate   =   -2886.01538495 Ry
     estimated scf accuracy    <      24.06721585 Ry

[...]

     End of self-consistent calculation

          k = 0.0000 0.0000 0.0000 (200813 PWs)   bands (ev):

   -98.5140 -98.5140 -98.4086 -98.4086 -98.3688 -98.3688 -98.1613 -98.1254
   -98.0961 -97.8571 -97.8570 -97.8215 -97.8214 -97.7893 -97.7893 -97.7662
   -97.6917 -97.6487 -19.2098 -19.1502 -19.1484 -19.0741 -19.0489 -18.9945
   -18.9944 -18.9745 -18.9660 -18.9596 -18.8545 -18.8077 -18.7222 -18.6721
   -18.6693 -18.6120 -18.5875 -18.5254 -18.5056 -18.4615 -18.4110 -18.3913
   -18.3719 -18.3527 -18.3378 -18.3314 -18.3304 -18.2520 -18.2509 -18.2349
   -17.5763 -17.0810 -16.3227 -16.1465 -16.0827 -15.9713 -15.8338 -15.4564
   -15.2225 -10.6100 -10.3958 -10.0364  -9.6648  -9.4627  -8.3223  -8.0542
    -7.5118  -7.3495  -7.1122  -6.6007  -6.5231  -6.4079  -6.3242  -6.2379
    -6.1660  -6.0725  -5.9027  -5.6941  -5.0990  -4.9546  -4.9155  -4.8470
    -4.7567  -4.6123  -4.0894  -4.0318

     occupation numbers
     1.0000   1.0000   1.0000   1.0000   1.0000   1.0000   1.0000   1.0000
     1.0000   1.0000   1.0000   1.0000   1.0000   1.0000   1.0000   1.0000
     1.0000   1.0000   1.0000   1.0000   1.0000   1.0000   1.0000   1.0000
     1.0000   1.0000   1.0000   1.0000   1.0000   1.0000   1.0000   1.0000
     1.0000   1.0000   1.0000   1.0000   1.0000   1.0000   1.0000   1.0000
     1.0000   1.0000   1.0000   1.0000   1.0000   1.0000   1.0000   1.0000
     1.0000   1.0000   1.0000   1.0000   1.0000   1.0000   1.0000   1.0000
     1.0000   1.0000   1.0000   1.0000   1.0000   1.0000   1.0000   1.0000
     1.0000   1.0000   1.0000   1.0000   1.0000   1.0000   1.0000   1.0000
     1.0000   1.0000   1.0000   1.0000   1.0000   1.0000   1.0000   1.0000
     1.0000   1.0000   1.0000   1.0000

[...]

     highest occupied level (ev):    -3.8858

!    total energy              =   -2880.08654326 Ry
     Harris-Foulkes estimate   =   -2880.08654326 Ry
     estimated scf accuracy    <          8.6E-13 Ry

     The total energy is the sum of the following terms:

     one-electron contribution =   -8935.67876273 Ry
     hartree contribution      =    4461.01445156 Ry
     xc contribution           =    -552.35176892 Ry
     ewald contribution        =    2146.92953682 Ry

     convergence has been achieved in  17 iterations

[...]

     Forces acting on atoms (cartesian axes, Ry/au):

     atom    1 type  1   force =     0.00000017   -0.00002684   -0.00000593
     atom    2 type  1   force =    -0.00000130    0.00001942   -0.00002306
     atom    3 type  1   force =     0.00000141    0.00001940   -0.00002308
     atom    4 type  1   force =    -0.00000033   -0.00000665    0.00000912
     atom    5 type  1   force =     0.00000031   -0.00000662    0.00000907
     atom    6 type  1   force =     0.00000003    0.00000562    0.00000749
     atom    7 type  2   force =     0.00001225   -0.00000009   -0.00000566
     atom    8 type  2   force =    -0.00001237   -0.00000016   -0.00000562
     atom    9 type  2   force =     0.00000004    0.00002907   -0.00000983
     atom   10 type  2   force =    -0.00000004   -0.00001741    0.00001823
     atom   11 type  2   force =    -0.00000005    0.00001645    0.00001656
     atom   12 type  2   force =     0.00001072    0.00002369   -0.00002004
     atom   13 type  2   force =    -0.00001080    0.00002363   -0.00002008
     atom   14 type  2   force =     0.00001298   -0.00003973    0.00002641
     atom   15 type  2   force =    -0.00001303   -0.00003979    0.00002642
     The non-local contrib.  to forces
     atom    1 type  1   force =     0.00001756   -0.04944796   -0.23536783
[...]
         8           Se  tau(   8) = (   0.6829086   0.2214116   0.5282433  )
         9           Se  tau(   9) = (   0.5248337   0.2188337   0.6593928  )
        10           Se  tau(  10) = (   0.5248533   0.2068090   0.3827595  )
        11           Se  tau(  11) = (   0.5248430   0.0880051   0.5301072  )
        12           Se  tau(  12) = (   0.4150396   0.0698893   0.6707808  )
        13           Se  tau(  13) = (   0.6346264   0.0698893   0.6707964  )
        14           Se  tau(  14) = (   0.4163154   0.0483128   0.3800278  )
        15           Se  tau(  15) = (   0.6333914   0.0483127   0.3800429  )

   Crystallographic axes

     site n.     atom                  positions (cryst. coord.)
         1           Ga  tau(   1) = (  0.5248346  0.0969562  0.6479384  )
         2           Ga  tau(   2) = (  0.4328083  0.8445294  0.4430842  )
         3           Ga  tau(   3) = (  0.6168898  0.8445297  0.4430972  )
         4           Ga  tau(   4) = (  0.4408536  0.5055387  0.5941863  )
         5           Ga  tau(   5) = (  0.6088232  0.5055392  0.5941983  )
         6           Ga  tau(   6) = (  0.5248515  0.2847158  0.4080439  )
         7           Se  tau(   7) = (  0.3667774  0.7191036  0.5282208  )
         8           Se  tau(   8) = (  0.6829086  0.7191047  0.5282433  )
         9           Se  tau(   9) = (  0.5248337  0.7107323  0.6593928  )
        10           Se  tau(  10) = (  0.5248533  0.6716780  0.3827595  )
        11           Se  tau(  11) = (  0.5248430  0.2858245  0.5301072  )
        12           Se  tau(  12) = (  0.4150396  0.2269877  0.6707808  )
        13           Se  tau(  13) = (  0.6346264  0.2269879  0.6707964  )
        14           Se  tau(  14) = (  0.4163154  0.1569112  0.3800278  )
        15           Se  tau(  15) = (  0.6333914  0.1569110  0.3800429  )

     number of k points=     5
                       cart. coord. in units 2pi/alat
        k(    1) = (   0.0000000   0.0000000   0.0000000), wk =   0.2500000
        k(    2) = (   0.0000000   0.4059774   0.0000000), wk =   0.5000000
        k(    3) = (   0.0000000   0.8119547   0.0000000), wk =   0.5000000
        k(    4) = (   0.0000000   1.2179321   0.0000000), wk =   0.5000000
        k(    5) = (   0.0000000  -1.6239094   0.0000000), wk =   0.2500000

                       cryst. coord.
        k(    1) = (   0.0000000   0.0000000   0.0000000), wk =   0.2500000
        k(    2) = (   0.0000000   0.1250000   0.0000000), wk =   0.5000000
        k(    3) = (   0.0000000   0.2500000   0.0000000), wk =   0.5000000
        k(    4) = (   0.0000000   0.3750000   0.0000000), wk =   0.5000000
        k(    5) = (   0.0000000  -0.5000000   0.0000000), wk =   0.2500000

     Initial potential from superposition of free atoms

     starting charge  161.99940, renormalised to  168.00000

     negative rho (up, down):  4.970E-04 0.000E+00
     Starting wfcs are  108 randomized atomic wfcs

     Self-consistent Calculation

[...]

     total energy              =   -2880.08654328 Ry
     Harris-Foulkes estimate   =   -2880.08654328 Ry
     estimated scf accuracy    <          1.0E-13 Ry

     iteration # 20     ecut=    80.00 Ry     beta= 0.50
     Davidson diagonalization with overlap
     ethr =  1.00E-13,  avg # of iterations =  1.0

[...]

     End of self-consistent calculation

[...]

          k = 0.0000-1.6239 0.0000 (200682 PWs)   bands (ev):

   -98.5140 -98.5140 -98.4086 -98.4085 -98.3688 -98.3688 -98.1613 -98.1255
   -98.0961 -97.8571 -97.8570 -97.8214 -97.8213 -97.7893 -97.7893 -97.7662
   -97.6917 -97.6487 -19.2034 -19.1503 -19.1468 -19.0742 -19.0591 -18.9955
   -18.9922 -18.9747 -18.9636 -18.9605 -18.8463 -18.8225 -18.7234 -18.6729
   -18.6697 -18.6150 -18.5783 -18.5233 -18.4995 -18.4624 -18.4092 -18.3905
   -18.3784 -18.3547 -18.3404 -18.3305 -18.3259 -18.2559 -18.2531 -18.2363
   -17.2327 -16.9971 -16.4557 -16.2712 -16.1201 -15.9996 -15.9913 -15.4572
   -15.4456 -10.6650 -10.2716  -9.7195  -9.5930  -9.4306  -9.0393  -7.6123
    -7.4277  -7.1255  -7.0827  -6.5875  -6.5652  -6.3394  -6.3068  -6.0762
    -5.9762  -5.9108  -5.6656  -5.6284  -5.4155  -5.0757  -5.0211  -4.8034
    -4.6131  -4.4664  -4.3692  -3.8858

     occupation numbers
     1.0000   1.0000   1.0000   1.0000   1.0000   1.0000   1.0000   1.0000
     1.0000   1.0000   1.0000   1.0000   1.0000   1.0000   1.0000   1.0000
     1.0000   1.0000   1.0000   1.0000   1.0000   1.0000   1.0000   1.0000
     1.0000   1.0000   1.0000   1.0000   1.0000   1.0000   1.0000   1.0000
     1.0000   1.0000   1.0000   1.0000   1.0000   1.0000   1.0000   1.0000
     1.0000   1.0000   1.0000   1.0000   1.0000   1.0000   1.0000   1.0000
     1.0000   1.0000   1.0000   1.0000   1.0000   1.0000   1.0000   1.0000
     1.0000   1.0000   1.0000   1.0000   1.0000   1.0000   1.0000   1.0000
     1.0000   1.0000   1.0000   1.0000   1.0000   1.0000   1.0000   1.0000
     1.0000   1.0000   1.0000   1.0000   1.0000   1.0000   1.0000   1.0000
     1.0000   1.0000   1.0000   1.0000

     highest occupied level (ev):    -3.8858

!    total energy              =   -2880.08654328 Ry
     Harris-Foulkes estimate   =   -2880.08654328 Ry
     estimated scf accuracy    <          3.1E-14 Ry

     The total energy is the sum of the following terms:

     one-electron contribution =   -8935.72472027 Ry
     hartree contribution      =    4461.03749672 Ry
     xc contribution           =    -552.35193799 Ry
     ewald contribution        =    2146.95261825 Ry

     convergence has been achieved in  20 iterations

     negative rho (up, down):  3.982E-04 0.000E+00

     Forces acting on atoms (cartesian axes, Ry/au):

     atom    1 type  1   force =    -0.00000007   -0.00000805   -0.00000938
     atom    2 type  1   force =     0.00000104   -0.00000423   -0.00000361
     atom    3 type  1   force =    -0.00000105   -0.00000421   -0.00000365
     atom    4 type  1   force =    -0.00000000    0.00000474   -0.00000032
     atom    5 type  1   force =    -0.00000005    0.00000471   -0.00000033
     atom    6 type  1   force =    -0.00000007    0.00000026    0.00001446
     atom    7 type  2   force =     0.00000982    0.00000051   -0.00000555
     atom    8 type  2   force =    -0.00000980    0.00000046   -0.00000558
     atom    9 type  2   force =     0.00000005    0.00001212   -0.00000511
     atom   10 type  2   force =     0.00000003   -0.00001328    0.00000966
     atom   11 type  2   force =    -0.00000001    0.00001138    0.00000838
     atom   12 type  2   force =     0.00000487    0.00001231   -0.00000777
     atom   13 type  2   force =    -0.00000480    0.00001228   -0.00000782
     atom   14 type  2   force =     0.00000590   -0.00001449    0.00000831
     atom   15 type  2   force =    -0.00000585   -0.00001450    0.00000831
     The non-local contrib.  to forces
     atom    1 type  1   force =     0.00001734   -0.04940693   -0.23533748
     atom    2 type  1   force =     0.29909449   -0.17828578   -0.07326630
     atom    3 type  1   force =    -0.29908361   -0.17828662   -0.07330848
     atom    4 type  1   force =     0.13407921    0.17541844   -0.22828789
     atom    5 type  1   force =    -0.13404528    0.17541735   -0.22830697
     atom    6 type  1   force =    -0.00000377    0.09752579    0.05791710
     atom    7 type  2   force =     0.34841991   -0.08977600   -0.08463464
     atom    8 type  2   force =    -0.34840771   -0.08977746   -0.08468436
     atom    9 type  2   force =     0.00002067    0.11254247   -0.28327972
     atom   10 type  2   force =    -0.00002358   -0.09087122    0.32949967
     atom   11 type  2   force =     0.00000156    0.08741404   -0.03157325
     atom   12 type  2   force =     0.24038862    0.10362916   -0.17985578
     atom   13 type  2   force =    -0.24036326    0.10362909   -0.17988991
     atom   14 type  2   force =     0.23895623   -0.13865894    0.16632941
     atom   15 type  2   force =    -0.23897896   -0.13865837    0.16629686
     The ionic contribution  to forces
     atom    1 type  1   force =    -0.00496883  -11.98104439   69.51922959
     atom    2 type  1   force =   -62.03074818   -2.03874769  -38.80976634
     atom    3 type  1   force =    62.03620648   -2.03877715  -38.80110436
     atom    4 type  1   force =   -65.03728853    4.95577247   34.98530382
     atom    5 type  1   force =    65.03239367    4.95577702   34.99446168
     atom    6 type  1   force =     0.00469225    4.98807312  -65.64169277
     atom    7 type  2   force =   -34.98785439    1.46251803    2.92684122
     atom    8 type  2   force =    34.98743228    1.46254429    2.93184339
     atom    9 type  2   force =    -0.00214168    1.25703931   29.37838144
     atom   10 type  2   force =     0.00219712   -0.29797736  -30.47725786
     atom   11 type  2   force =     0.00021430   -4.06632108   -2.28794541
     atom   12 type  2   force =   -26.20253832   -3.64185904   25.83969257
     atom   13 type  2   force =    26.19889597   -3.64185509   25.84328270
     atom   14 type  2   force =   -25.35363069    4.31243253  -25.20234488
     atom   15 type  2   force =    25.35713857    4.31242502  -25.19892479
     The local contribution  to forces
     atom    1 type  1   force =     0.00495162   12.03047599  -69.28528913
     atom    2 type  1   force =    61.73409176    2.21539877   38.88288388
     atom    3 type  1   force =   -61.73956101    2.21542902   38.87426373
     atom    4 type  1   force =    64.90316805   -5.12946001  -34.75872205
     atom    5 type  1   force =   -64.89830687   -5.12946345  -34.76786080
     atom    6 type  1   force =    -0.00468839   -5.08570395   65.58324560
     atom    7 type  2   force =    34.67201328   -1.38283100   -2.84939014
     atom    8 type  2   force =   -34.67160226   -1.38285596   -2.85434726
     atom    9 type  2   force =     0.00212311   -1.35727004  -29.12245728
     atom   10 type  2   force =    -0.00217577    0.37870754   30.18024276
     atom   11 type  2   force =    -0.00021547    3.98588661    2.31378008
     atom   12 type  2   force =    25.98297342    3.54761375  -25.67512776
     atom   13 type  2   force =   -25.97935420    3.54760984  -25.67868679
     atom   14 type  2   force =    25.13572594   -4.18596652   25.04984672
     atom   15 type  2   force =   -25.13921285   -4.18595948   25.04645635
     The core correction contribution to forces
     atom    1 type  1   force =    -0.00000002   -0.00003255    0.00138747
     atom    2 type  1   force =    -0.00243696    0.00163049    0.00014526
     atom    3 type  1   force =     0.00243709    0.00163056    0.00014559
     atom    4 type  1   force =     0.00004153   -0.00172606    0.00170571
     atom    5 type  1   force =    -0.00004168   -0.00172606    0.00170567
     atom    6 type  1   force =    -0.00000005    0.00010530    0.00054470
     atom    7 type  2   force =    -0.03256896    0.01008950    0.00717794
     atom    8 type  2   force =     0.03256786    0.01008960    0.00718260
     atom    9 type  2   force =    -0.00000200   -0.01229961    0.02735026
     atom   10 type  2   force =     0.00000230    0.01012777   -0.03247493
     atom   11 type  2   force =    -0.00000034   -0.00696814    0.00574695
     atom   12 type  2   force =    -0.02081879   -0.00937152    0.01528305
     atom   13 type  2   force =     0.02081665   -0.00937151    0.01528599
     atom   14 type  2   force =    -0.02104562    0.01217848   -0.01382302
     atom   15 type  2   force =     0.02104744    0.01217837   -0.01382017
     The Hubbard contrib.    to forces
     atom    1 type  1   force =     0.00000000    0.00000000    0.00000000
     atom    2 type  1   force =     0.00000000    0.00000000    0.00000000
     atom    3 type  1   force =     0.00000000    0.00000000    0.00000000
     atom    4 type  1   force =     0.00000000    0.00000000    0.00000000
     atom    5 type  1   force =     0.00000000    0.00000000    0.00000000
     atom    6 type  1   force =     0.00000000    0.00000000    0.00000000
     atom    7 type  2   force =     0.00000000    0.00000000    0.00000000
     atom    8 type  2   force =     0.00000000    0.00000000    0.00000000
     atom    9 type  2   force =     0.00000000    0.00000000    0.00000000
     atom   10 type  2   force =     0.00000000    0.00000000    0.00000000
     atom   11 type  2   force =     0.00000000    0.00000000    0.00000000
     atom   12 type  2   force =     0.00000000    0.00000000    0.00000000
     atom   13 type  2   force =     0.00000000    0.00000000    0.00000000
     atom   14 type  2   force =     0.00000000    0.00000000    0.00000000
     atom   15 type  2   force =     0.00000000    0.00000000    0.00000000
     The SCF correction term to forces
     atom    1 type  1   force =    -0.00000019   -0.00000015    0.00000005
     atom    2 type  1   force =    -0.00000008    0.00000001   -0.00000023
     atom    3 type  1   force =    -0.00000001    0.00000001   -0.00000024
     atom    4 type  1   force =    -0.00000028   -0.00000008   -0.00000003
     atom    5 type  1   force =     0.00000009   -0.00000012   -0.00000002
     atom    6 type  1   force =    -0.00000012    0.00000003   -0.00000029
     atom    7 type  2   force =    -0.00000003    0.00000001   -0.00000005
     atom    8 type  2   force =     0.00000001    0.00000002   -0.00000007
     atom    9 type  2   force =    -0.00000006    0.00000002    0.00000006
     atom   10 type  2   force =    -0.00000005    0.00000001   -0.00000009
     atom   11 type  2   force =    -0.00000007   -0.00000001   -0.00000010
     atom   12 type  2   force =    -0.00000008   -0.00000001    0.00000004
     atom   13 type  2   force =     0.00000003   -0.00000002    0.00000007
     atom   14 type  2   force =     0.00000001   -0.00000001   -0.00000004
     atom   15 type  2   force =    -0.00000006   -0.00000001   -0.00000006

     Total force =     0.000050     Total SCF correction =     0.000001

     Computing stress (Cartesian axis) and pressure

     negative rho (up, down):  3.982E-04 0.000E+00
          total   stress  (Ry/bohr**3)                   (kbar)     P=   -0.12
  -0.00000122  -0.00000000  -0.00000000         -0.18     -0.00     -0.00
  -0.00000000  -0.00000003   0.00000003         -0.00     -0.00      0.00
  -0.00000000   0.00000003  -0.00000126         -0.00      0.00     -0.19

     kinetic stress (kbar)   1132.30     -0.00     -0.00
                               -0.00   1138.15     16.83
                               -0.00     16.83   1145.71

     local   stress (kbar)   1277.16     -0.12      0.26
                               -0.12 -58207.77   1770.44
                                0.26   1770.44  -5078.62

     nonloc. stress (kbar)    918.03      0.00     -0.00
                                0.00    922.02     -0.40
                               -0.00     -0.40    920.84

     hartree stress (kbar)   2330.21      0.05     -0.14
                                0.05  31582.06   -732.98
                               -0.14   -732.98   5566.96

     exc-cor stress (kbar)   1528.85      0.00      0.00
                                0.00   1529.13     -0.29
                                0.00     -0.29   1528.73

     corecor stress (kbar)  -2411.03      0.00      0.00
                                0.00  -2411.46     -0.45
                                0.00     -0.45  -2411.70

     ewald   stress (kbar)  -4775.70      0.07     -0.13
                                0.07  25447.88  -1053.16
                               -0.13  -1053.16  -1672.11

     hubbard stress (kbar)      0.00      0.00      0.00
                                0.00      0.00      0.00
                                0.00      0.00      0.00

     london  stress (kbar)      0.00      0.00      0.00
                                0.00      0.00      0.00
                                0.00      0.00      0.00

     DFT-D3  stress (kbar)      0.00      0.00      0.00
                                0.00      0.00      0.00
                                0.00      0.00      0.00

     XDM     stress (kbar)      0.00      0.00      0.00
                                0.00      0.00      0.00
                                0.00      0.00      0.00

     dft-nl  stress (kbar)      0.00      0.00      0.00
                                0.00      0.00      0.00
                                0.00      0.00      0.00

     TS-vdW  stress (kbar)      0.00      0.00      0.00
                                0.00      0.00      0.00
                                0.00      0.00      0.00

     Writing output data file NR.save/

     General routines

     Parallel routines

   This run was terminated on:  15: 2:26  29Apr2021

   JOB DONE.