     Program PWSCF v.6.4.1 starts on 29Apr2021 at 15:14: 2

     K-points division:     npool     =       4
     R & G space division:  proc/nbgrp/npool/nimage =      16
     Waiting for input...
     Reading input from standard input
Warning: card &CELL ignored
Warning: card   CELL_DYNAMICS     = 'BFGS' ignored
Warning: card   PRESS_CONV_THR    = 0.5D0 ignored
Warning: card   CELL_DOFREE = 'Y' ignored
Warning: card / ignored

     Current dimensions of program PWSCF are:
     Max number of different atomic species (ntypx) = 10
     Max number of k-points (npk) =  40000
     Max angular momentum in pseudopotentials (lmaxx) =  3

     bravais-lattice index     =            0
     lattice parameter (alat)  =      37.7945  a.u.
     unit-cell volume          =   16622.4411 (a.u.)^3
     number of atoms/cell      =           15
     number of atomic types    =            2
     number of electrons       =       168.00
     number of Kohn-Sham states=           84
     kinetic-energy cutoff     =      80.0000  Ry
     charge density cutoff     =     600.0000  Ry
     convergence threshold     =      1.0E-11
     mixing beta               =       0.5000
     number of iterations used =            8  plain     mixing
     Exchange-correlation      = SLA  PW   PSX  PSC ( 1  4 10  8 0 0)
     nstep                     =          200

     celldm(1)=  37.794523  celldm(2)=   0.000000  celldm(3)=   0.000000
     celldm(4)=   0.000000  celldm(5)=   0.000000  celldm(6)=   0.000000

     crystal axes: (cart. coord. in units of alat)
               a(1) = (   1.000000   0.000000   0.000000 )
               a(2) = (   0.000000   0.307899   0.000000 )
               a(3) = (   0.000000   0.000000   1.000000 )

     reciprocal axes: (cart. coord. in units 2 pi/alat)
               b(1) = (  1.000000  0.000000  0.000000 )
               b(2) = (  0.000000  3.247819  0.000000 )
               b(3) = (  0.000000  0.000000  1.000000 )

     PseudoPot. # 1 for Ga read from file:
     ./GBRV_PBEsol/ga_pbesol_v1.4.uspp.F.UPF
     MD5 check sum: c51a1280f7300f419a8cd4df5a064fc3
     Pseudo is Ultrasoft + core correction, Zval = 19.0
     Generated by new atomic code, or converted to UPF format
     Using radial grid of  871 points,  6 beta functions with:
                l(1) =   0
                l(2) =   0
                l(3) =   1
                l(4) =   1
                l(5) =   2
                l(6) =   2
     Q(r) pseudized with  8 coefficients,  rinner =    1.250   1.250   1.250
                                                       1.250   1.250

     PseudoPot. # 2 for Se read from file:
     ./GBRV_PBEsol/se_pbesol_v1.uspp.F.UPF
     MD5 check sum: a3b4745ad650bb7419ce2e0d5f176975
     Pseudo is Ultrasoft + core correction, Zval =  6.0
     Generated by new atomic code, or converted to UPF format
     Using radial grid of  877 points,  6 beta functions with:
                l(1) =   0
                l(2) =   0
                l(3) =   1
                l(4) =   1
                l(5) =   2
                l(6) =   2
     Q(r) pseudized with  8 coefficients,  rinner =    1.300   1.300   1.300
                                                       1.300   1.300

     atomic species   valence    mass     pseudopotential
        Ga            19.00    69.72300     Ga( 1.00)
        Se             6.00    78.97100     Se( 1.00)

     No symmetry found

                                    s                        frac. trans.

      isym =  1     identity

 cryst.   s( 1) = (     1          0          0      )
                  (     0          1          0      )
                  (     0          0          1      )

 cart.    s( 1) = (  1.0000000  0.0000000  0.0000000 )
                  (  0.0000000  1.0000000  0.0000000 )
                  (  0.0000000  0.0000000  1.0000000 )

   Cartesian axes

     site n.     atom                  positions (alat units)
         1           Ga  tau(   1) = (   0.5248346   0.0298527   0.6479384  )
         2           Ga  tau(   2) = (   0.4328083   0.2600297   0.4430842  )
         3           Ga  tau(   3) = (   0.6168898   0.2600298   0.4430972  )
         4           Ga  tau(   4) = (   0.4408536   0.1556548   0.5941863  )
         5           Ga  tau(   5) = (   0.6088232   0.1556550   0.5941983  )
         6           Ga  tau(   6) = (   0.5248515   0.0876637   0.4080439  )
         7           Se  tau(   7) = (   0.3667774   0.2214112   0.5282208  )
         8           Se  tau(   8) = (   0.6829086   0.2214116   0.5282433  )
         9           Se  tau(   9) = (   0.5248337   0.2188337   0.6593928  )
        10           Se  tau(  10) = (   0.5248533   0.2068090   0.3827595  )
        11           Se  tau(  11) = (   0.5248430   0.0880051   0.5301072  )
        12           Se  tau(  12) = (   0.4150396   0.0698893   0.6707808  )
        13           Se  tau(  13) = (   0.6346264   0.0698893   0.6707964  )
        14           Se  tau(  14) = (   0.4163154   0.0483128   0.3800278  )
        15           Se  tau(  15) = (   0.6333914   0.0483127   0.3800429  )

   Crystallographic axes

     site n.     atom                  positions (cryst. coord.)
         1           Ga  tau(   1) = (  0.5248346  0.0969562  0.6479384  )
         2           Ga  tau(   2) = (  0.4328083  0.8445294  0.4430842  )
         3           Ga  tau(   3) = (  0.6168898  0.8445297  0.4430972  )
         4           Ga  tau(   4) = (  0.4408536  0.5055387  0.5941863  )
         5           Ga  tau(   5) = (  0.6088232  0.5055392  0.5941983  )
         6           Ga  tau(   6) = (  0.5248515  0.2847158  0.4080439  )
         7           Se  tau(   7) = (  0.3667774  0.7191036  0.5282208  )
         8           Se  tau(   8) = (  0.6829086  0.7191047  0.5282433  )
         9           Se  tau(   9) = (  0.5248337  0.7107323  0.6593928  )
        10           Se  tau(  10) = (  0.5248533  0.6716780  0.3827595  )
        11           Se  tau(  11) = (  0.5248430  0.2858245  0.5301072  )
        12           Se  tau(  12) = (  0.4150396  0.2269877  0.6707808  )
        13           Se  tau(  13) = (  0.6346264  0.2269879  0.6707964  )
        14           Se  tau(  14) = (  0.4163154  0.1569112  0.3800278  )
        15           Se  tau(  15) = (  0.6333914  0.1569110  0.3800429  )

     number of k points=     5
                       cart. coord. in units 2pi/alat
        k(    1) = (   0.0000000   0.0000000   0.0000000), wk =   0.2500000
        k(    2) = (   0.0000000   0.4059774   0.0000000), wk =   0.5000000
        k(    3) = (   0.0000000   0.8119547   0.0000000), wk =   0.5000000
        k(    4) = (   0.0000000   1.2179321   0.0000000), wk =   0.5000000
        k(    5) = (   0.0000000  -1.6239094   0.0000000), wk =   0.2500000

                       cryst. coord.
        k(    1) = (   0.0000000   0.0000000   0.0000000), wk =   0.2500000
        k(    2) = (   0.0000000   0.1250000   0.0000000), wk =   0.5000000
        k(    3) = (   0.0000000   0.2500000   0.0000000), wk =   0.5000000
        k(    4) = (   0.0000000   0.3750000   0.0000000), wk =   0.5000000
        k(    5) = (   0.0000000  -0.5000000   0.0000000), wk =   0.2500000

     Initial potential from superposition of free atoms

     starting charge  161.99940, renormalised to  168.00000

     negative rho (up, down):  4.970E-04 0.000E+00
     Starting wfcs are  108 randomized atomic wfcs

     Self-consistent Calculation

     iteration #  1     ecut=    80.00 Ry     beta= 0.50
     Davidson diagonalization with overlap
     ethr =  1.00E-02,  avg # of iterations =  3.0

     negative rho (up, down):  3.329E-05 0.000E+00

     total energy              =   -2868.74568063 Ry
     Harris-Foulkes estimate   =   -2886.01540432 Ry
     estimated scf accuracy    <      24.06734322 Ry

[...]

     End of self-consistent calculation

          k = 0.0000 0.0000 0.0000 (200813 PWs)   bands (ev):

   -98.5140 -98.5140 -98.4086 -98.4086 -98.3688 -98.3688 -98.1613 -98.1255
   -98.0961 -97.8571 -97.8570 -97.8214 -97.8214 -97.7893 -97.7893 -97.7662
   -97.6917 -97.6487 -19.2098 -19.1502 -19.1484 -19.0741 -19.0489 -18.9945
   -18.9944 -18.9745 -18.9660 -18.9595 -18.8546 -18.8077 -18.7223 -18.6721
   -18.6694 -18.6120 -18.5875 -18.5254 -18.5056 -18.4614 -18.4110 -18.3912
   -18.3719 -18.3527 -18.3378 -18.3314 -18.3303 -18.2520 -18.2509 -18.2349
   -17.5764 -17.0811 -16.3227 -16.1465 -16.0827 -15.9714 -15.8339 -15.4564
   -15.2225 -10.6102 -10.3959 -10.0364  -9.6648  -9.4627  -8.3222  -8.0543
    -7.5118  -7.3496  -7.1123  -6.6007  -6.5232  -6.4080  -6.3242  -6.2380
    -6.1660  -6.0725  -5.9027  -5.6940  -5.0990  -4.9545  -4.9154  -4.8470
    -4.7568  -4.6123  -4.0894  -4.0318

     occupation numbers
     1.0000   1.0000   1.0000   1.0000   1.0000   1.0000   1.0000   1.0000
     1.0000   1.0000   1.0000   1.0000   1.0000   1.0000   1.0000   1.0000
     1.0000   1.0000   1.0000   1.0000   1.0000   1.0000   1.0000   1.0000
     1.0000   1.0000   1.0000   1.0000   1.0000   1.0000   1.0000   1.0000
     1.0000   1.0000   1.0000   1.0000   1.0000   1.0000   1.0000   1.0000
     1.0000   1.0000   1.0000   1.0000   1.0000   1.0000   1.0000   1.0000
     1.0000   1.0000   1.0000   1.0000   1.0000   1.0000   1.0000   1.0000
     1.0000   1.0000   1.0000   1.0000   1.0000   1.0000   1.0000   1.0000
     1.0000   1.0000   1.0000   1.0000   1.0000   1.0000   1.0000   1.0000
     1.0000   1.0000   1.0000   1.0000   1.0000   1.0000   1.0000   1.0000
     1.0000   1.0000   1.0000   1.0000

[...]

     highest occupied level (ev):    -3.8858

!    total energy              =   -2880.08654328 Ry
     Harris-Foulkes estimate   =   -2880.08654328 Ry
     estimated scf accuracy    <          8.6E-13 Ry

     The total energy is the sum of the following terms:

     one-electron contribution =   -8935.72470323 Ry
     hartree contribution      =    4461.03748081 Ry
     xc contribution           =    -552.35193798 Ry
     ewald contribution        =    2146.95261711 Ry

     convergence has been achieved in  17 iterations

[...]

     Forces acting on atoms (cartesian axes, Ry/au):

     atom    1 type  1   force =     0.00000013   -0.00000770   -0.00000979
     atom    2 type  1   force =     0.00000154   -0.00000440   -0.00000394
     atom    3 type  1   force =    -0.00000145   -0.00000444   -0.00000396
     atom    4 type  1   force =     0.00000035    0.00000527   -0.00000066
     atom    5 type  1   force =    -0.00000040    0.00000528   -0.00000069
     atom    6 type  1   force =     0.00000005   -0.00000033    0.00001433
     atom    7 type  2   force =     0.00000973    0.00000048   -0.00000533
     atom    8 type  2   force =    -0.00000981    0.00000043   -0.00000530
     atom    9 type  2   force =     0.00000002    0.00001209   -0.00000482
     atom   10 type  2   force =    -0.00000004   -0.00001317    0.00000969
     atom   11 type  2   force =    -0.00000005    0.00001135    0.00000881
     atom   12 type  2   force =     0.00000492    0.00001224   -0.00000753
     atom   13 type  2   force =    -0.00000493    0.00001222   -0.00000758
     atom   14 type  2   force =     0.00000567   -0.00001465    0.00000837
[...]

[...]

     energy   old            =   -2880.0865432808 Ry
     energy   new            =   -2880.0865432829 Ry

     CASE: energy  _new < energy  _old

     WARNING: bfgs curvature condition failed, Theta= 0.955
     small trust_radius: resetting bfgs history

[...]

     number of scf cycles    =   3
     number of bfgs steps    =   2

     energy   old            =   -2880.0865432829 Ry
     energy   new            =   -2880.0865432846 Ry

     CASE: energy  _new < energy  _old

     WARNING: bfgs curvature condition failed, Theta= 0.879
     Message from routine bfgs:
     history already reset at previous step: stopping
     small trust_radius: resetting bfgs history

     new trust radius        =       0.0000148176 bohr
     new conv_thr            =            1.0E-13 Ry

ATOMIC_POSITIONS (crystal)
Ga       0.524834646   0.096954881   0.647937794
Ga       0.432808390   0.844527942   0.443083931
Ga       0.616889685   0.844528190   0.443096944
Ga       0.440853611   0.505540248   0.594186253
Ga       0.608823220   0.505540657   0.594198256
Ga       0.524851488   0.284715455   0.408044955
Se       0.366778037   0.719103739   0.528220448
Se       0.682907956   0.719104830   0.528242940
Se       0.524833730   0.710734953   0.659392449
Se       0.524853309   0.671674785   0.382760180
Se       0.524843044   0.285827212   0.530107833
Se       0.415039921   0.226990505   0.670780301
Se       0.634626106   0.226990706   0.670795887
Se       0.416315836   0.156908058   0.380028375
Se       0.633391021   0.156907841   0.380043460

     Writing output data file NR.save/
     NEW-OLD atomic charge density approx. for the potential

[...]

     Self-consistent Calculation

[...]

     Threshold (ethr) on eigenvalues was too large:
     Diagonalizing with lowered threshold

     Davidson diagonalization with overlap
     ethr =  5.12E-13,  avg # of iterations =  5.0

[...]

     total energy              =   -2880.08654329 Ry
     Harris-Foulkes estimate   =   -2880.08654329 Ry
     estimated scf accuracy    <          5.5E-13 Ry

     iteration #  5     ecut=    80.00 Ry     beta= 0.50
     Davidson diagonalization with overlap
     ethr =  1.00E-13,  avg # of iterations =  1.0

[...]

     End of self-consistent calculation

[...]

          k = 0.0000-1.6239 0.0000 (200682 PWs)   bands (ev):

   -98.5140 -98.5140 -98.4086 -98.4086 -98.3688 -98.3688 -98.1613 -98.1255
   -98.0962 -97.8571 -97.8570 -97.8214 -97.8213 -97.7893 -97.7893 -97.7662
   -97.6917 -97.6487 -19.2034 -19.1503 -19.1468 -19.0742 -19.0591 -18.9955
   -18.9922 -18.9747 -18.9636 -18.9605 -18.8464 -18.8225 -18.7234 -18.6729
   -18.6697 -18.6150 -18.5783 -18.5233 -18.4995 -18.4624 -18.4092 -18.3905
   -18.3784 -18.3547 -18.3404 -18.3305 -18.3259 -18.2559 -18.2531 -18.2363
   -17.2328 -16.9971 -16.4557 -16.2712 -16.1201 -15.9996 -15.9913 -15.4572
   -15.4456 -10.6650 -10.2716  -9.7195  -9.5930  -9.4306  -9.0393  -7.6123
    -7.4277  -7.1256  -7.0827  -6.5876  -6.5652  -6.3395  -6.3068  -6.0763
    -5.9762  -5.9108  -5.6656  -5.6284  -5.4155  -5.0757  -5.0211  -4.8034
    -4.6131  -4.4664  -4.3692  -3.8858

     occupation numbers
     1.0000   1.0000   1.0000   1.0000   1.0000   1.0000   1.0000   1.0000
     1.0000   1.0000   1.0000   1.0000   1.0000   1.0000   1.0000   1.0000
     1.0000   1.0000   1.0000   1.0000   1.0000   1.0000   1.0000   1.0000
     1.0000   1.0000   1.0000   1.0000   1.0000   1.0000   1.0000   1.0000
     1.0000   1.0000   1.0000   1.0000   1.0000   1.0000   1.0000   1.0000
     1.0000   1.0000   1.0000   1.0000   1.0000   1.0000   1.0000   1.0000
     1.0000   1.0000   1.0000   1.0000   1.0000   1.0000   1.0000   1.0000
     1.0000   1.0000   1.0000   1.0000   1.0000   1.0000   1.0000   1.0000
     1.0000   1.0000   1.0000   1.0000   1.0000   1.0000   1.0000   1.0000
     1.0000   1.0000   1.0000   1.0000   1.0000   1.0000   1.0000   1.0000
     1.0000   1.0000   1.0000   1.0000

     highest occupied level (ev):    -3.8858

!    total energy              =   -2880.08654329 Ry
     Harris-Foulkes estimate   =   -2880.08654329 Ry
     estimated scf accuracy    <          6.9E-14 Ry

     The total energy is the sum of the following terms:

     one-electron contribution =   -8935.74628056 Ry
     hartree contribution      =    4461.04825888 Ry
     xc contribution           =    -552.35200826 Ry
     ewald contribution        =    2146.96348664 Ry

     convergence has been achieved in   5 iterations

     negative rho (up, down):  3.982E-04 0.000E+00

     Forces acting on atoms (cartesian axes, Ry/au):

     atom    1 type  1   force =    -0.00000001   -0.00000101   -0.00000952
     atom    2 type  1   force =     0.00000312   -0.00000685   -0.00000219
     atom    3 type  1   force =    -0.00000312   -0.00000685   -0.00000221
     atom    4 type  1   force =     0.00000104    0.00000580   -0.00000108
     atom    5 type  1   force =    -0.00000105    0.00000578   -0.00000111
     atom    6 type  1   force =    -0.00000003   -0.00000326    0.00001368
     atom    7 type  2   force =     0.00000479    0.00000058   -0.00000324
     atom    8 type  2   force =    -0.00000480    0.00000053   -0.00000328
     atom    9 type  2   force =     0.00000002    0.00000756   -0.00000316
     atom   10 type  2   force =     0.00000001   -0.00001118    0.00000567
     atom   11 type  2   force =    -0.00000003    0.00000923    0.00000598
     atom   12 type  2   force =     0.00000304    0.00000897   -0.00000430
     atom   13 type  2   force =    -0.00000300    0.00000895   -0.00000435
     atom   14 type  2   force =     0.00000432   -0.00000912    0.00000455
     atom   15 type  2   force =    -0.00000431   -0.00000912    0.00000454
     The non-local contrib.  to forces
     atom    1 type  1   force =     0.00001729   -0.04939903   -0.23533117
     atom    2 type  1   force =     0.29909398   -0.17829827   -0.07327263
     atom    3 type  1   force =    -0.29908301   -0.17829909   -0.07331482
     atom    4 type  1   force =     0.13408541    0.17543568   -0.22828726
     atom    5 type  1   force =    -0.13405141    0.17543445   -0.22830625
     atom    6 type  1   force =    -0.00000370    0.09751830    0.05790706
     atom    7 type  2   force =     0.34841652   -0.08977807   -0.08463260
     atom    8 type  2   force =    -0.34840433   -0.08977950   -0.08468234
     atom    9 type  2   force =     0.00002066    0.11254315   -0.28327756
     atom   10 type  2   force =    -0.00002358   -0.09086930    0.32949742
     atom   11 type  2   force =     0.00000158    0.08741115   -0.03157907
     atom   12 type  2   force =     0.24038696    0.10362679   -0.17985554
     atom   13 type  2   force =    -0.24036162    0.10362673   -0.17988965
     atom   14 type  2   force =     0.23895468   -0.13865602    0.16632803
     atom   15 type  2   force =    -0.23897741   -0.13865544    0.16629547
     The ionic contribution  to forces
     atom    1 type  1   force =    -0.00496809  -11.98074541   69.51917851
     atom    2 type  1   force =   -62.03084722   -2.03873548  -38.81019666
     atom    3 type  1   force =    62.03630581   -2.03876498  -38.80153533
     atom    4 type  1   force =   -65.03745304    4.95572904   34.98566148
     atom    5 type  1   force =    65.03255674    4.95573379   34.99481811
     atom    6 type  1   force =     0.00469222    4.98784202  -65.64149791
     atom    7 type  2   force =   -34.98800570    1.46254184    2.92683759
     atom    8 type  2   force =    34.98758367    1.46256779    2.93183938
     atom    9 type  2   force =    -0.00214162    1.25681484   29.37846060
     atom   10 type  2   force =     0.00219694   -0.29793024  -30.47734353
     atom   11 type  2   force =     0.00021335   -4.06636647   -2.28789812
     atom   12 type  2   force =   -26.20253895   -3.64190833   25.83983267
     atom   13 type  2   force =    26.19889809   -3.64190398   25.84342205
     atom   14 type  2   force =   -25.35363012    4.31256636  -25.20249944
     atom   15 type  2   force =    25.35713791    4.31255922  -25.19907938
     The local contribution  to forces
     atom    1 type  1   force =     0.00495082   12.03017621  -69.28524387
     atom    2 type  1   force =    61.73419334    2.21539638   38.88332195
     atom    3 type  1   force =   -61.73966304    2.21542664   38.87470246
     atom    4 type  1   force =    64.90332707   -5.12943249  -34.75908108
     atom    5 type  1   force =   -64.89846463   -5.12943602  -34.76821869
     atom    6 type  1   force =    -0.00468850   -5.08546896   65.58305935
     atom    7 type  2   force =    34.67216230   -1.38285290   -2.84938589
     atom    8 type  2   force =   -34.67175137   -1.38287756   -2.85434265
     atom    9 type  2   force =     0.00212298   -1.35705111  -29.12253628
     atom   10 type  2   force =    -0.00217565    0.37866098   30.18032636
     atom   11 type  2   force =    -0.00021461    3.98593240    2.31373549
     atom   12 type  2   force =    25.98297361    3.54766169  -25.67526435
     atom   13 type  2   force =   -25.97935591    3.54765738  -25.67882261
     atom   14 type  2   force =    25.13572511   -4.18609735   25.04999853
     atom   15 type  2   force =   -25.13921198   -4.18609068   25.04660817
     The core correction contribution to forces
     atom    1 type  1   force =    -0.00000002   -0.00003275    0.00138741
     atom    2 type  1   force =    -0.00243702    0.00163067    0.00014531
     atom    3 type  1   force =     0.00243715    0.00163074    0.00014564
     atom    4 type  1   force =     0.00004148   -0.00172624    0.00170568
     atom    5 type  1   force =    -0.00004162   -0.00172624    0.00170563
     atom    6 type  1   force =    -0.00000005    0.00010545    0.00054479
     atom    7 type  2   force =    -0.03256832    0.01008974    0.00717760
     atom    8 type  2   force =     0.03256722    0.01008984    0.00718226
     atom    9 type  2   force =    -0.00000200   -0.01229930    0.02734996
     atom   10 type  2   force =     0.00000230    0.01012748   -0.03247457
     atom   11 type  2   force =    -0.00000034   -0.00696778    0.00574766
     atom   12 type  2   force =    -0.02081862   -0.00937111    0.01528285
     atom   13 type  2   force =     0.02081648   -0.00937111    0.01528579
     atom   14 type  2   force =    -0.02104542    0.01217784   -0.01382263
     atom   15 type  2   force =     0.02104724    0.01217773   -0.01381978
     The Hubbard contrib.    to forces
     atom    1 type  1   force =     0.00000000    0.00000000    0.00000000
     atom    2 type  1   force =     0.00000000    0.00000000    0.00000000
     atom    3 type  1   force =     0.00000000    0.00000000    0.00000000
     atom    4 type  1   force =     0.00000000    0.00000000    0.00000000
     atom    5 type  1   force =     0.00000000    0.00000000    0.00000000
     atom    6 type  1   force =     0.00000000    0.00000000    0.00000000
     atom    7 type  2   force =     0.00000000    0.00000000    0.00000000
     atom    8 type  2   force =     0.00000000    0.00000000    0.00000000
     atom    9 type  2   force =     0.00000000    0.00000000    0.00000000
     atom   10 type  2   force =     0.00000000    0.00000000    0.00000000
     atom   11 type  2   force =     0.00000000    0.00000000    0.00000000
     atom   12 type  2   force =     0.00000000    0.00000000    0.00000000
     atom   13 type  2   force =     0.00000000    0.00000000    0.00000000
     atom   14 type  2   force =     0.00000000    0.00000000    0.00000000
     atom   15 type  2   force =     0.00000000    0.00000000    0.00000000
     The SCF correction term to forces
     atom    1 type  1   force =     0.00000000    0.00000001   -0.00000050
     atom    2 type  1   force =     0.00000004   -0.00000012   -0.00000025
     atom    3 type  1   force =    -0.00000003   -0.00000013   -0.00000026
     atom    4 type  1   force =     0.00000013   -0.00000016    0.00000001
     atom    5 type  1   force =    -0.00000013   -0.00000017   -0.00000000
     atom    6 type  1   force =    -0.00000002   -0.00000004    0.00000028
     atom    7 type  2   force =    -0.00000001    0.00000001   -0.00000003
     atom    8 type  2   force =     0.00000001    0.00000001   -0.00000004
     atom    9 type  2   force =    -0.00000000    0.00000001    0.00000002
     atom   10 type  2   force =    -0.00000000   -0.00000007   -0.00000010
     atom   11 type  2   force =    -0.00000000   -0.00000005   -0.00000007
     atom   12 type  2   force =     0.00000003   -0.00000003   -0.00000003
     atom   13 type  2   force =    -0.00000004   -0.00000003   -0.00000003
     atom   14 type  2   force =     0.00000006    0.00000008   -0.00000005
     atom   15 type  2   force =    -0.00000006    0.00000008   -0.00000005

     Total force =     0.000037     Total SCF correction =     0.000001

     Computing stress (Cartesian axis) and pressure

     negative rho (up, down):  3.982E-04 0.000E+00
          total   stress  (Ry/bohr**3)                   (kbar)     P=   -0.12
  -0.00000121  -0.00000000  -0.00000000         -0.18     -0.00     -0.00
  -0.00000000  -0.00000002   0.00000002         -0.00     -0.00      0.00
  -0.00000000   0.00000002  -0.00000125         -0.00      0.00     -0.18

     kinetic stress (kbar)   1132.30     -0.00     -0.00
                               -0.00   1138.15     16.83
                               -0.00     16.83   1145.71

     local   stress (kbar)   1277.16     -0.12      0.26
                               -0.12 -58208.00   1770.45
                                0.26   1770.45  -5078.59

     nonloc. stress (kbar)    918.03      0.00     -0.00
                                0.00    922.02     -0.40
                               -0.00     -0.40    920.84

     hartree stress (kbar)   2330.21      0.05     -0.14
                                0.05  31582.17   -732.98
                               -0.14   -732.98   5566.94

     exc-cor stress (kbar)   1528.85      0.00      0.00
                                0.00   1529.13     -0.29
                                0.00     -0.29   1528.73

     corecor stress (kbar)  -2411.03      0.00      0.00
                                0.00  -2411.46     -0.45
                                0.00     -0.45  -2411.70

     ewald   stress (kbar)  -4775.70      0.07     -0.13
                                0.07  25448.00  -1053.16
                               -0.13  -1053.16  -1672.12

     hubbard stress (kbar)      0.00      0.00      0.00
                                0.00      0.00      0.00
                                0.00      0.00      0.00

     london  stress (kbar)      0.00      0.00      0.00
                                0.00      0.00      0.00
                                0.00      0.00      0.00

     DFT-D3  stress (kbar)      0.00      0.00      0.00
                                0.00      0.00      0.00
                                0.00      0.00      0.00

     XDM     stress (kbar)      0.00      0.00      0.00
                                0.00      0.00      0.00
                                0.00      0.00      0.00

     dft-nl  stress (kbar)      0.00      0.00      0.00
                                0.00      0.00      0.00
                                0.00      0.00      0.00

     TS-vdW  stress (kbar)      0.00      0.00      0.00
                                0.00      0.00      0.00
                                0.00      0.00      0.00

     Message from routine bfgs:
     history already reset at previous step: stopping

     bfgs converged in   4 scf cycles and   3 bfgs steps
     (criteria: energy <  1.0E-07 Ry, force <  1.0E-06 Ry/Bohr)

     End of BFGS Geometry Optimization

     Final energy   =   -2880.0865432861 Ry
Begin final coordinates

ATOMIC_POSITIONS (crystal)
Ga       0.524834646   0.096954881   0.647937794
Ga       0.432808390   0.844527942   0.443083931
Ga       0.616889685   0.844528190   0.443096944
Ga       0.440853611   0.505540248   0.594186253
Ga       0.608823220   0.505540657   0.594198256
Ga       0.524851488   0.284715455   0.408044955
Se       0.366778037   0.719103739   0.528220448
Se       0.682907956   0.719104830   0.528242940
Se       0.524833730   0.710734953   0.659392449
Se       0.524853309   0.671674785   0.382760180
Se       0.524843044   0.285827212   0.530107833
Se       0.415039921   0.226990505   0.670780301
Se       0.634626106   0.226990706   0.670795887
Se       0.416315836   0.156908058   0.380028375
Se       0.633391021   0.156907841   0.380043460
End final coordinates

     Writing output data file NR.save/

     General routines

     Parallel routines

   This run was terminated on:  15:23: 3  29Apr2021

   JOB DONE.