     Program PWSCF v.6.4.1 starts on 11Aug2021 at 15:28:24

     K-points division:     npool     =       8
     R & G space division:  proc/nbgrp/npool/nimage =      16
     Waiting for input...
     Reading input from standard input
Warning: card &CELL ignored
Warning: card   CELL_DYNAMICS     = 'BFGS' ignored
Warning: card   PRESS_CONV_THR    = 0.5D0 ignored
Warning: card   CELL_DOFREE = 'ALL' ignored
Warning: card / ignored

     Current dimensions of program PWSCF are:
     Max number of different atomic species (ntypx) = 10
     Max number of k-points (npk) =  40000
     Max angular momentum in pseudopotentials (lmaxx) =  3

     bravais-lattice index     =            0
     lattice parameter (alat)  =      18.4233  a.u.
     unit-cell volume          =    5758.9404 (a.u.)^3
     number of atoms/cell      =           72
     number of atomic types    =            3
     number of electrons       =       796.00
     number of Kohn-Sham states=          478
     kinetic-energy cutoff     =      60.0000  Ry
     charge density cutoff     =     500.0000  Ry
     convergence threshold     =      1.0E-08
     mixing beta               =       0.5000
     number of iterations used =            8  plain     mixing
     Exchange-correlation      = SLA  PW   PSX  PSC ( 1  4 10  8 0 0)
     nstep                     =          200

     celldm(1)=  18.423338  celldm(2)=   0.000000  celldm(3)=   0.000000
     celldm(4)=   0.000000  celldm(5)=   0.000000  celldm(6)=   0.000000

     crystal axes: (cart. coord. in units of alat)
               a(1) = (   1.000000   0.000410  -0.000414 )
               a(2) = (  -0.499644   0.866141   0.000428 )
               a(3) = (  -0.000442   0.000273   1.063032 )

     reciprocal axes: (cart. coord. in units 2 pi/alat)
               b(1) = (  0.999764  0.576725  0.000267 )
               b(2) = ( -0.000473  1.154273 -0.000296 )
               b(3) = (  0.000389 -0.000240  0.940706 )

     PseudoPot. # 1 for Zn read from file:
     ./GBRV_PBEsol/zn_pbesol_v1.uspp.F.UPF
     MD5 check sum: 7d8615e52efe7c1e2b1899de8658bae2
     Pseudo is Ultrasoft, Zval = 20.0
     Generated by new atomic code, or converted to UPF format
     Using radial grid of  943 points,  6 beta functions with:
                l(1) =   0
                l(2) =   0
                l(3) =   1
                l(4) =   1
                l(5) =   2
                l(6) =   2
     Q(r) pseudized with  8 coefficients,  rinner =    1.100   1.100   1.100
                                                       1.100   1.100

     PseudoPot. # 2 for O  read from file:
     ./GBRV_PBEsol/o_pbesol_v1.2.uspp.F.UPF
     MD5 check sum: 501638753501ef6325af9037351f7734
     Pseudo is Ultrasoft + core correction, Zval =  6.0
     Generated by new atomic code, or converted to UPF format
     Using radial grid of  737 points,  5 beta functions with:
                l(1) =   0
                l(2) =   0
                l(3) =   1
                l(4) =   1
                l(5) =   2
     Q(r) pseudized with  8 coefficients,  rinner =    0.900   0.900   0.900
                                                       0.900   0.900

     PseudoPot. # 3 for Mg read from file:
     ./GBRV_PBEsol/mg_pbesol_v1.4.uspp.F.UPF
     MD5 check sum: 4059f37963cf5867752dbf5ab2400678
     Pseudo is Ultrasoft, Zval = 10.0
     Generated by new atomic code, or converted to UPF format
     Using radial grid of  821 points,  7 beta functions with:
                l(1) =   0
                l(2) =   0
                l(3) =   0
                l(4) =   1
                l(5) =   1
                l(6) =   2
                l(7) =   2
     Q(r) pseudized with  8 coefficients,  rinner =    1.200   1.200   1.200
                                                       1.200   1.200

     atomic species   valence    mass     pseudopotential
        Zn            20.00    65.38000     Zn( 1.00)
        O              6.00    15.99900     O ( 1.00)
        Mg            10.00    24.30500     Mg( 1.00)

     No symmetry found

                                    s                        frac. trans.

      isym =  1     identity

 cryst.   s( 1) = (     1          0          0      )
                  (     0          1          0      )
                  (     0          0          1      )

 cart.    s( 1) = (  1.0000000 -0.0000000 -0.0000000 )
                  (  0.0000000  1.0000000 -0.0000000 )
                  (  0.0000000  0.0000000  1.0000000 )

   Cartesian axes

     site n.     atom                  positions (alat units)
         1           Zn  tau(   1) = (   0.1663757   0.0971969   0.2068030  )
         2           Zn  tau(   2) = (   0.1675871   0.0961124   0.7387816  )
         3           Zn  tau(   3) = (   0.0018507   0.3862384   0.2073697  )
         4           Zn  tau(   4) = (  -0.0009526   0.3853922   0.7380866  )
         5           Zn  tau(   5) = (  -0.1662895   0.6732590   0.2050672  )
         6           Mg  tau(   6) = (  -0.1656084   0.6764739   0.7394295  )
         7           Zn  tau(   7) = (   0.5009304   0.0965474   0.2066218  )
         8           Zn  tau(   8) = (   0.4994465   0.0973015   0.7384914  )
         9           Mg  tau(   9) = (   0.3329865   0.3859842   0.2065199  )
        10           Mg  tau(  10) = (   0.3334167   0.3850295   0.7375282  )
        11           Mg  tau(  11) = (   0.1651180   0.6728236   0.2076447  )
        12           Zn  tau(  12) = (   0.1670618   0.6754068   0.7349739  )
        13           Mg  tau(  13) = (   0.8338340   0.0980576   0.2042618  )
        14           Mg  tau(  14) = (   0.8343568   0.0965827   0.7366494  )
        15           Zn  tau(  15) = (   0.6668715   0.3855165   0.2042251  )
        16           Mg  tau(  16) = (   0.6658610   0.3867597   0.7405686  )
        17           Zn  tau(  17) = (   0.4979539   0.6739484   0.2069789  )
        18           Zn  tau(  18) = (   0.5014662   0.6742667   0.7378934  )
        19           Zn  tau(  19) = (  -0.0017582   0.1928715   0.4731781  )
        20           Zn  tau(  20) = (   0.0003724   0.1922781   1.0038609  )
        21           Mg  tau(  21) = (  -0.1688165   0.4818456   0.4723942  )
        22           Zn  tau(  22) = (  -0.1651117   0.4811726   1.0025151  )
        23           Zn  tau(  23) = (  -0.3317316   0.7695982   0.4719259  )
        24           Mg  tau(  24) = (  -0.3350702   0.7694640   1.0067104  )
        25           Zn  tau(  25) = (   0.3327839   0.1920865   0.4712739  )
        26           Mg  tau(  26) = (   0.3330151   0.1923274   1.0046694  )
        27           Mg  tau(  27) = (   0.1652915   0.4794743   0.4734245  )
        28           Zn  tau(  28) = (   0.1661766   0.4824272   1.0017108  )
        29           Zn  tau(  29) = (  -0.0017862   0.7704418   0.4729308  )
        30           Zn  tau(  30) = (   0.0020988   0.7695213   1.0043325  )
        31           Mg  tau(  31) = (   0.6647400   0.1943584   0.4722186  )
        32           Zn  tau(  32) = (   0.6672146   0.1913911   1.0014154  )
        33           Zn  tau(  33) = (   0.5018752   0.4802915   0.4728511  )
        34           Zn  tau(  34) = (   0.4981014   0.4827323   1.0037403  )
        35           Mg  tau(  35) = (   0.3351115   0.7707798   0.4714911  )
        36           Mg  tau(  36) = (   0.3318358   0.7679961   1.0019269  )
        37           O   tau(  37) = (   0.1673236   0.0955764   0.0032569  )
        38           O   tau(  38) = (   0.1658827   0.0962145   0.5347257  )
        39           O   tau(  39) = (   0.0009002   0.3846170   0.0033885  )
        40           O   tau(  40) = (  -0.0019838   0.3856022   0.5342272  )
        41           O   tau(  41) = (  -0.1661212   0.6737888   0.0013805  )
        42           O   tau(  42) = (  -0.1666990   0.6732458   0.5368997  )
        43           O   tau(  43) = (   0.5007251   0.0962284   0.0028047  )
        44           O   tau(  44) = (   0.4992477   0.0966355   0.5345485  )
        45           O   tau(  45) = (   0.3327711   0.3844152   0.0033221  )
        46           O   tau(  46) = (   0.3330434   0.3850436   0.5345388  )
        47           O   tau(  47) = (   0.1674553   0.6729111   0.0050704  )
        48           O   tau(  48) = (   0.1675101   0.6735766   0.5310390  )
        49           O   tau(  49) = (   0.8339135   0.0943769   0.0011895  )
        50           O   tau(  50) = (   0.8312173   0.0964544   0.5336855  )
        51           O   tau(  51) = (   0.6670699   0.3848798   0.0002394  )
        52           O   tau(  52) = (   0.6672580   0.3850144   0.5374959  )
        53           O   tau(  53) = (   0.4988927   0.6741119   0.0032758  )
        54           O   tau(  54) = (   0.5009233   0.6738969   0.5340012  )
        55           O   tau(  55) = (  -0.0002773   0.1931456   0.2690309  )
        56           O   tau(  56) = (   0.0002003   0.1928582   0.8001369  )
        57           O   tau(  57) = (  -0.1666448   0.4811979   0.2694547  )
        58           O   tau(  58) = (  -0.1671422   0.4832687   0.7988884  )
        59           O   tau(  59) = (  -0.3335854   0.7696460   0.2678179  )
        60           O   tau(  60) = (  -0.3326693   0.7702560   0.8036539  )
        61           O   tau(  61) = (   0.3337049   0.1933374   0.2672793  )
        62           O   tau(  62) = (   0.3333584   0.1936481   0.8021441  )
        63           O   tau(  63) = (   0.1678137   0.4817544   0.2710348  )
        64           O   tau(  64) = (   0.1667209   0.4822019   0.7977650  )
        65           O   tau(  65) = (  -0.0006843   0.7701417   0.2690635  )
        66           O   tau(  66) = (   0.0014119   0.7710615   0.8007169  )
        67           O   tau(  67) = (   0.6675340   0.1933299   0.2693446  )
        68           O   tau(  68) = (   0.6677411   0.1933557   0.7976129  )
        69           O   tau(  69) = (   0.5001916   0.4812018   0.2687024  )
        70           O   tau(  70) = (   0.4988964   0.4817122   0.8002233  )
        71           O   tau(  71) = (   0.3313752   0.7717294   0.2681776  )
        72           O   tau(  72) = (   0.3338884   0.7707464   0.7991484  )

   Crystallographic axes

     site n.     atom                  positions (cryst. coord.)
         1           Zn  tau(   1) = (  0.2224476  0.1120518  0.1945822  )
         2           Zn  tau(   2) = (  0.2231756  0.1106419  0.6950182  )
         3           Zn  tau(   3) = (  0.2246591  0.4457623  0.1949818  )
         4           Zn  tau(   4) = (  0.2215104  0.4446296  0.6942293  )
         5           Zn  tau(   5) = (  0.2220899  0.7771426  0.1926815  )
         6           Mg  tau(   6) = (  0.2247679  0.7806948  0.6953586  )
         7           Zn  tau(   7) = (  0.5565488  0.1111439  0.1945422  )
         8           Zn  tau(   8) = (  0.5556423  0.1118574  0.6948741  )
         9           Mg  tau(   9) = (  0.5555699  0.4453125  0.1943114  )
        10           Mg  tau(  10) = (  0.5555915  0.4440530  0.6938344  )
        11           Mg  tau(  11) = (  0.5531688  0.7764825  0.1952353  )
        12           Zn  tau(  12) = (  0.5567430  0.7793071  0.6912970  )
[...]
     atom   14 type  3   force =     0.00000000    0.00000000    0.00000000
     atom   15 type  1   force =     0.00000000    0.00000000    0.00000000
     atom   16 type  3   force =     0.00000000    0.00000000    0.00000000
     atom   17 type  1   force =     0.00000000    0.00000000    0.00000000
     atom   18 type  1   force =     0.00000000    0.00000000    0.00000000
     atom   19 type  1   force =     0.00000000    0.00000000    0.00000000
     atom   20 type  1   force =     0.00000000    0.00000000    0.00000000
     atom   21 type  3   force =     0.00000000    0.00000000    0.00000000
     atom   22 type  1   force =     0.00000000    0.00000000    0.00000000
     atom   23 type  1   force =     0.00000000    0.00000000    0.00000000
     atom   24 type  3   force =     0.00000000    0.00000000    0.00000000
     atom   25 type  1   force =     0.00000000    0.00000000    0.00000000
     atom   26 type  3   force =     0.00000000    0.00000000    0.00000000
     atom   27 type  3   force =     0.00000000    0.00000000    0.00000000
     atom   28 type  1   force =     0.00000000    0.00000000    0.00000000
     atom   29 type  1   force =     0.00000000    0.00000000    0.00000000
     atom   30 type  1   force =     0.00000000    0.00000000    0.00000000
     atom   31 type  3   force =     0.00000000    0.00000000    0.00000000
     atom   32 type  1   force =     0.00000000    0.00000000    0.00000000
     atom   33 type  1   force =     0.00000000    0.00000000    0.00000000
     atom   34 type  1   force =     0.00000000    0.00000000    0.00000000
     atom   35 type  3   force =     0.00000000    0.00000000    0.00000000
     atom   36 type  3   force =     0.00000000    0.00000000    0.00000000
     atom   37 type  2   force =     0.00000000    0.00000000    0.00000000
     atom   38 type  2   force =     0.00000000    0.00000000    0.00000000
     atom   39 type  2   force =     0.00000000    0.00000000    0.00000000
     atom   40 type  2   force =     0.00000000    0.00000000    0.00000000
     atom   41 type  2   force =     0.00000000    0.00000000    0.00000000
     atom   42 type  2   force =     0.00000000    0.00000000    0.00000000
     atom   43 type  2   force =     0.00000000    0.00000000    0.00000000
     atom   44 type  2   force =     0.00000000    0.00000000    0.00000000
     atom   45 type  2   force =     0.00000000    0.00000000    0.00000000
     atom   46 type  2   force =     0.00000000    0.00000000    0.00000000
     atom   47 type  2   force =     0.00000000    0.00000000    0.00000000
     atom   48 type  2   force =     0.00000000    0.00000000    0.00000000
     atom   49 type  2   force =     0.00000000    0.00000000    0.00000000
     atom   50 type  2   force =     0.00000000    0.00000000    0.00000000
     atom   51 type  2   force =     0.00000000    0.00000000    0.00000000
     atom   52 type  2   force =     0.00000000    0.00000000    0.00000000
     atom   53 type  2   force =     0.00000000    0.00000000    0.00000000
     atom   54 type  2   force =     0.00000000    0.00000000    0.00000000
     atom   55 type  2   force =     0.00000000    0.00000000    0.00000000
     atom   56 type  2   force =     0.00000000    0.00000000    0.00000000
     atom   57 type  2   force =     0.00000000    0.00000000    0.00000000
     atom   58 type  2   force =     0.00000000    0.00000000    0.00000000
     atom   59 type  2   force =     0.00000000    0.00000000    0.00000000
     atom   60 type  2   force =     0.00000000    0.00000000    0.00000000
     atom   61 type  2   force =     0.00000000    0.00000000    0.00000000
     atom   62 type  2   force =     0.00000000    0.00000000    0.00000000
     atom   63 type  2   force =     0.00000000    0.00000000    0.00000000
     atom   64 type  2   force =     0.00000000    0.00000000    0.00000000
     atom   65 type  2   force =     0.00000000    0.00000000    0.00000000
     atom   66 type  2   force =     0.00000000    0.00000000    0.00000000
     atom   67 type  2   force =     0.00000000    0.00000000    0.00000000
     atom   68 type  2   force =     0.00000000    0.00000000    0.00000000
     atom   69 type  2   force =     0.00000000    0.00000000    0.00000000
     atom   70 type  2   force =     0.00000000    0.00000000    0.00000000
     atom   71 type  2   force =     0.00000000    0.00000000    0.00000000
     atom   72 type  2   force =     0.00000000    0.00000000    0.00000000
     The SCF correction term to forces
     atom    1 type  1   force =    -0.00000109    0.00000073    0.00000368
     atom    2 type  1   force =    -0.00000304   -0.00000083    0.00000614
     atom    3 type  1   force =    -0.00000218   -0.00000233    0.00000392
     atom    4 type  1   force =    -0.00000157   -0.00000095    0.00000120
     atom    5 type  1   force =    -0.00000214   -0.00000018    0.00000073
     atom    6 type  3   force =    -0.00000003   -0.00000051    0.00000019
     atom    7 type  1   force =     0.00000098    0.00000190    0.00000174
     atom    8 type  1   force =    -0.00000029    0.00000020    0.00000205
     atom    9 type  3   force =     0.00000041   -0.00000005    0.00000006
     atom   10 type  3   force =     0.00000025   -0.00000000   -0.00000020
     atom   11 type  3   force =     0.00000046    0.00000067    0.00000058
     atom   12 type  1   force =     0.00000092    0.00000015    0.00000032
     atom   13 type  3   force =    -0.00000018    0.00000006    0.00000065
     atom   14 type  3   force =     0.00000041   -0.00000010    0.00000043
     atom   15 type  1   force =    -0.00000079    0.00000203   -0.00000455
     atom   16 type  3   force =     0.00000023   -0.00000017    0.00000126
     atom   17 type  1   force =     0.00000395   -0.00000183    0.00000097
     atom   18 type  1   force =     0.00000183   -0.00000015    0.00000225
     atom   19 type  1   force =    -0.00000206   -0.00000008   -0.00000069
     atom   20 type  1   force =    -0.00000412   -0.00000326   -0.00000094
     atom   21 type  3   force =    -0.00000005   -0.00000011    0.00000044
     atom   22 type  1   force =    -0.00000946   -0.00000197    0.00000389
     atom   23 type  1   force =    -0.00000006   -0.00000515    0.00000426
     atom   24 type  3   force =    -0.00000023   -0.00000036    0.00000053
     atom   25 type  1   force =     0.00000371    0.00000065    0.00000267
     atom   26 type  3   force =     0.00000095    0.00000070   -0.00000020
     atom   27 type  3   force =     0.00000007    0.00000078    0.00000017
     atom   28 type  1   force =     0.00000404    0.00000393   -0.00000152
     atom   29 type  1   force =     0.00000186   -0.00000074    0.00000083
     atom   30 type  1   force =     0.00000194    0.00000106    0.00000181
     atom   31 type  3   force =     0.00000010   -0.00000020    0.00000021
     atom   32 type  1   force =    -0.00000118    0.00000410    0.00000204
     atom   33 type  1   force =     0.00000259   -0.00000088    0.00000453
     atom   34 type  1   force =     0.00000285   -0.00000088    0.00000389
     atom   35 type  3   force =    -0.00000034    0.00000005    0.00000018
     atom   36 type  3   force =    -0.00000082    0.00000036   -0.00000048
     atom   37 type  2   force =    -0.00000048   -0.00000043    0.00000083
     atom   38 type  2   force =     0.00000033   -0.00000072    0.00000053
     atom   39 type  2   force =    -0.00000080   -0.00000038    0.00000020
     atom   40 type  2   force =     0.00000018   -0.00000083   -0.00000113
     atom   41 type  2   force =    -0.00000110   -0.00000023   -0.00000016
     atom   42 type  2   force =     0.00000028   -0.00000152    0.00000052
     atom   43 type  2   force =    -0.00000016    0.00000095    0.00000040
     atom   44 type  2   force =     0.00000046   -0.00000067   -0.00000056
     atom   45 type  2   force =     0.00000019   -0.00000016   -0.00000081
     atom   46 type  2   force =     0.00000027   -0.00000072    0.00000050
     atom   47 type  2   force =     0.00000010    0.00000023   -0.00000135
     atom   48 type  2   force =     0.00000018   -0.00000070   -0.00000035
     atom   49 type  2   force =    -0.00000114    0.00000037   -0.00000157
     atom   50 type  2   force =     0.00000043   -0.00000112   -0.00000015
     atom   51 type  2   force =    -0.00000142   -0.00000035    0.00000013
     atom   52 type  2   force =     0.00000083   -0.00000108   -0.00000117
     atom   53 type  2   force =    -0.00000024    0.00000005   -0.00000000
     atom   54 type  2   force =    -0.00000091   -0.00000115   -0.00000064
     atom   55 type  2   force =    -0.00000045    0.00000016   -0.00000019
     atom   56 type  2   force =    -0.00000076    0.00000021   -0.00000016
     atom   57 type  2   force =     0.00000028    0.00000096   -0.00000053
     atom   58 type  2   force =    -0.00000125   -0.00000031    0.00000029
     atom   59 type  2   force =     0.00000084    0.00000046    0.00000098
     atom   60 type  2   force =    -0.00000056    0.00000031    0.00000004
     atom   61 type  2   force =     0.00000082    0.00000105    0.00000042
     atom   62 type  2   force =    -0.00000050    0.00000044    0.00000027
     atom   63 type  2   force =     0.00000129    0.00000080   -0.00000059
     atom   64 type  2   force =    -0.00000013    0.00000047   -0.00000070
     atom   65 type  2   force =     0.00000111    0.00000034   -0.00000037
     atom   66 type  2   force =    -0.00000025    0.00000069   -0.00000022
     atom   67 type  2   force =     0.00000135    0.00000039   -0.00000028
     atom   68 type  2   force =    -0.00000054    0.00000065   -0.00000046
     atom   69 type  2   force =     0.00000043    0.00000040   -0.00000028
     atom   70 type  2   force =     0.00000076    0.00000039   -0.00000044
     atom   71 type  2   force =     0.00000045    0.00000113   -0.00000176
     atom   72 type  2   force =     0.00000031    0.00000041   -0.00000077

     Total force =     0.000074     Total SCF correction =     0.000024
     SCF correction compared to forces is large: reduce conv_thr to get better values

     Computing stress (Cartesian axis) and pressure

          total   stress  (Ry/bohr**3)                   (kbar)     P=   -0.01
  -0.00000004   0.00000000  -0.00000001         -0.01      0.00     -0.00
   0.00000000  -0.00000004   0.00000000          0.00     -0.01      0.00
  -0.00000001   0.00000000  -0.00000022         -0.00      0.00     -0.03

     kinetic stress (kbar)  28012.48      0.16     -0.43
                                0.16  28013.20      0.19
                               -0.43      0.19  28050.09

     local   stress (kbar)  -6962.65   -292.56   1632.02
                             -292.56 -11491.40  -1225.60
                             1632.02  -1225.60 -15142.23

     nonloc. stress (kbar)   1011.81      0.11      0.03
                                0.11   1012.08      0.06
                                0.03      0.06    995.30

     hartree stress (kbar)  46644.15    139.56   -798.03
                              139.56  48854.35    598.17
                             -798.03    598.17  50632.64

     exc-cor stress (kbar) -11243.85      0.01     -0.01
                                0.01 -11243.84      0.00
                               -0.01      0.00 -11244.26

     corecor stress (kbar)   -248.47     -0.00      0.00
                               -0.00   -248.47     -0.00
                                0.00     -0.00   -248.51

     ewald   stress (kbar) -57213.48    152.72   -833.58
                              152.72 -54895.94    627.18
                             -833.58    627.18 -53043.05

     hubbard stress (kbar)      0.00      0.00      0.00
                                0.00      0.00      0.00
                                0.00      0.00      0.00

     london  stress (kbar)      0.00      0.00      0.00
                                0.00      0.00      0.00
                                0.00      0.00      0.00

     DFT-D3  stress (kbar)      0.00      0.00      0.00
                                0.00      0.00      0.00
                                0.00      0.00      0.00

     XDM     stress (kbar)      0.00      0.00      0.00
                                0.00      0.00      0.00
                                0.00      0.00      0.00

     dft-nl  stress (kbar)      0.00      0.00      0.00
                                0.00      0.00      0.00
                                0.00      0.00      0.00

     TS-vdW  stress (kbar)      0.00      0.00      0.00
                                0.00      0.00      0.00
                                0.00      0.00      0.00

     Message from routine bfgs:
     history already reset at previous step: stopping

     bfgs converged in   4 scf cycles and   3 bfgs steps
     (criteria: energy <  1.0E-07 Ry, force <  1.0E-06 Ry/Bohr)

     End of BFGS Geometry Optimization

     Final energy   =  -13064.1336886605 Ry
Begin final coordinates

ATOMIC_POSITIONS (crystal)
Zn       0.222446780   0.112051102   0.194579939
Zn       0.223176728   0.110642093   0.695016403
Zn       0.224658891   0.445762066   0.194980426
Zn       0.221510721   0.444629233   0.694229567
Zn       0.222088842   0.777141351   0.192681220
Mg       0.224768771   0.780694936   0.695357288
Zn       0.556547909   0.111143287   0.194540705
Zn       0.555643096   0.111857064   0.694874054
Mg       0.555568122   0.445311575   0.194311990
Mg       0.555590408   0.444052007   0.693833500
Mg       0.553167045   0.776481643   0.195236275
Zn       0.556742594   0.779306212   0.691296648
Mg       0.890242926   0.112729739   0.192452909
Mg       0.890058836   0.110869334   0.693271591
Zn       0.889104530   0.444614208   0.192282280
Mg       0.888955803   0.445891684   0.696824647
Zn       0.886572335   0.777623086   0.194737477
Zn       0.890410619   0.777831350   0.694173979
Zn       0.109602567   0.222488230   0.445073634
Zn       0.111532729   0.221644321   0.944291483
Mg       0.109242874   0.556122885   0.444202659
Zn       0.112701333   0.555186246   0.942890816
Zn       0.112320218   0.888345690   0.443627022
Mg       0.109048285   0.888031301   0.946702861
Zn       0.443612405   0.221423746   0.443411926
Mg       0.444126674   0.221543488   0.945181281
Mg       0.441904519   0.553227347   0.445301994
Zn       0.444633386   0.556477325   0.942263934
Zn       0.442674831   0.889161884   0.444702440
Zn       0.446169481   0.887938731   0.944596371
Mg       0.776800373   0.223889503   0.444430181
Zn       0.777705876   0.220304871   0.942251174
Zn       0.778879656   0.554012223   0.444892732
Zn       0.776656395   0.556670704   0.944302250
Mg       0.779687257   0.889392508   0.443480818
Mg       0.774948518   0.886023394   0.942464473
O        0.222406972   0.110241824   0.003105066
O        0.221475581   0.110821737   0.503059891
O        0.222719231   0.443951834   0.003095694
O        0.220546608   0.444934127   0.502458207
O        0.222510309   0.777814093   0.001072855
O        0.221762700   0.777031849   0.504837338
O        0.556105418   0.110835144   0.002810279
O        0.555005308   0.111149864   0.503024592
O        0.554396538   0.443562136   0.003163498
O        0.555172149   0.444130952   0.502880207
O        0.555502131   0.776642957   0.004675219
O        0.556081842   0.777256149   0.499454973
O        0.888147290   0.108541823   0.001423272
O        0.886791130   0.110784664   0.502341716
O        0.888884336   0.443941324   0.000393176
O        0.889291122   0.443938142   0.505794267
O        0.887553004   0.777871450   0.003114092
O        0.889603215   0.777467717   0.502371867
O        0.111186874   0.222863086   0.253032572
O        0.111640742   0.222373541   0.752647691
O        0.110983917   0.555430879   0.253297158
O        0.111825349   0.557666705   0.751337568
O        0.110437233   0.888459205   0.251622185
O        0.111850283   0.889004252   0.755687293
O        0.445198892   0.222925582   0.251514429
O        0.445177118   0.223127377   0.754664854
O        0.445684757   0.555915646   0.254914812
O        0.444993065   0.556276698   0.750412016
O        0.443546991   0.888874421   0.252924966
O        0.446316793   0.889777158   0.753054600
O        0.778944730   0.222759432   0.253587155
O        0.779310050   0.222631906   0.750533133
O        0.777665556   0.555121129   0.252848606
O        0.776806602   0.555553336   0.752854022
O        0.776442510   0.890548655   0.252221988
O        0.778531321   0.889256839   0.751709795
End final coordinates

     Writing output data file ZnO.save/

     General routines

     Parallel routines

   This run was terminated on:  16: 1:23  11Aug2021

   JOB DONE.