     Program PWSCF v.6.4.1 starts on  8Nov2021 at 21:43:54

     K-points division:     npool     =       8
     R & G space division:  proc/nbgrp/npool/nimage =      16
     Waiting for input...
     Reading input from standard input
Warning: card &IONS ignored
Warning: card   UPSCALE           = 100.D0, ignored
Warning: card / ignored
Warning: card &CELL ignored
Warning: card   CELL_DYNAMICS     = 'BFGS' ignored
Warning: card   PRESS_CONV_THR    = 0.5D0 ignored
Warning: card   CELL_DOFREE = 'Z' ignored
Warning: card / ignored

     Current dimensions of program PWSCF are:
     Max number of different atomic species (ntypx) = 10
     Max number of k-points (npk) =  40000
     Max angular momentum in pseudopotentials (lmaxx) =  3

     bravais-lattice index     =            0
     lattice parameter (alat)  =      18.4233  a.u.
     unit-cell volume          =    5185.2735 (a.u.)^3
     number of atoms/cell      =           72
     number of atomic types    =            3
     number of electrons       =       796.00
     number of Kohn-Sham states=          478
     kinetic-energy cutoff     =      60.0000  Ry
     charge density cutoff     =     500.0000  Ry
     convergence threshold     =      1.0E-08
     mixing beta               =       0.5000
     number of iterations used =            8  plain     mixing
     Exchange-correlation      = SLA  PW   PSX  PSC ( 1  4 10  8 0 0)

     celldm(1)=  18.423337  celldm(2)=   0.000000  celldm(3)=   0.000000
     celldm(4)=   0.000000  celldm(5)=   0.000000  celldm(6)=   0.000000

     crystal axes: (cart. coord. in units of alat)
               a(1) = (   1.000000   0.000410  -0.000331 )
               a(2) = (  -0.499644   0.866142   0.000342 )
               a(3) = (  -0.000442   0.000273   0.957140 )

     reciprocal axes: (cart. coord. in units 2 pi/alat)
               b(1) = (  0.999764  0.576725  0.000297 )
               b(2) = ( -0.000473  1.154273 -0.000329 )
               b(3) = (  0.000346 -0.000213  1.044780 )

     PseudoPot. # 1 for Zn read from file:
     ./GBRV_PBEsol/zn_pbesol_v1.uspp.F.UPF
     MD5 check sum: 7d8615e52efe7c1e2b1899de8658bae2
     Pseudo is Ultrasoft, Zval = 20.0
     Generated by new atomic code, or converted to UPF format
     Using radial grid of  943 points,  6 beta functions with:
                l(1) =   0
                l(2) =   0
                l(3) =   1
                l(4) =   1
                l(5) =   2
                l(6) =   2
     Q(r) pseudized with  8 coefficients,  rinner =    1.100   1.100   1.100
                                                       1.100   1.100

     PseudoPot. # 2 for O  read from file:
     ./GBRV_PBEsol/o_pbesol_v1.2.uspp.F.UPF
     MD5 check sum: 501638753501ef6325af9037351f7734
     Pseudo is Ultrasoft + core correction, Zval =  6.0
     Generated by new atomic code, or converted to UPF format
     Using radial grid of  737 points,  5 beta functions with:
                l(1) =   0
                l(2) =   0
                l(3) =   1
                l(4) =   1
                l(5) =   2
     Q(r) pseudized with  8 coefficients,  rinner =    0.900   0.900   0.900
                                                       0.900   0.900

     PseudoPot. # 3 for Mg read from file:
     ./GBRV_PBEsol/mg_pbesol_v1.4.uspp.F.UPF
     MD5 check sum: 4059f37963cf5867752dbf5ab2400678
     Pseudo is Ultrasoft, Zval = 10.0
     Generated by new atomic code, or converted to UPF format
     Using radial grid of  821 points,  7 beta functions with:
                l(1) =   0
                l(2) =   0
                l(3) =   0
                l(4) =   1
                l(5) =   1
                l(6) =   2
                l(7) =   2
     Q(r) pseudized with  8 coefficients,  rinner =    1.200   1.200   1.200
                                                       1.200   1.200

     atomic species   valence    mass     pseudopotential
        Zn            20.00    65.38000     Zn( 1.00)
        O              6.00    15.99900     O ( 1.00)
        Mg            10.00    24.30500     Mg( 1.00)

     No symmetry found

                                    s                        frac. trans.

      isym =  1     identity

 cryst.   s( 1) = (     1          0          0      )
                  (     0          1          0      )
                  (     0          0          1      )

 cart.    s( 1) = (  1.0000000 -0.0000000  0.0000000 )
                  ( -0.0000000  1.0000000 -0.0000000 )
                  (  0.0000000 -0.0000000  1.0000000 )

   Cartesian axes

     site n.     atom                  positions (alat units)
         1           Zn  tau(   1) = (   0.1669899   0.0965731   0.2421523  )
         2           Zn  tau(   2) = (   0.1665803   0.0966234   0.7203531  )
         3           Zn  tau(   3) = (  -0.0006900   0.3857235   0.2425190  )
         4           Zn  tau(   4) = (  -0.0034119   0.3863579   0.7192140  )
         5           Zn  tau(   5) = (  -0.1666142   0.6773217   0.2410301  )
         6           Mg  tau(   6) = (  -0.1643437   0.6774619   0.7234914  )
         7           Zn  tau(   7) = (   0.5030416   0.0967744   0.2405883  )
         8           Zn  tau(   8) = (   0.5041813   0.0973007   0.7221743  )
         9           Mg  tau(   9) = (   0.3329951   0.3825457   0.2439577  )
        10           Mg  tau(  10) = (   0.3320201   0.3833347   0.7182173  )
        11           Mg  tau(  11) = (   0.1657181   0.6717189   0.2421673  )
        12           Zn  tau(  12) = (   0.1671031   0.6718346   0.7208612  )
        13           Mg  tau(  13) = (   0.8351089   0.0977516   0.2424622  )
        14           Mg  tau(  14) = (   0.8345104   0.0975451   0.7181084  )
        15           Zn  tau(  15) = (   0.6655179   0.3879523   0.2418692  )
        16           Mg  tau(  16) = (   0.6656649   0.3882916   0.7204449  )
        17           Zn  tau(  17) = (   0.4977889   0.6730269   0.2413844  )
        18           Zn  tau(  18) = (   0.4996175   0.6725198   0.7194629  )
        19           Zn  tau(  19) = (  -0.0009614   0.1940242   0.4815386  )
        20           Zn  tau(  20) = (   0.0019972   0.1924965   0.0030020  )
        21           Mg  tau(  21) = (  -0.1681570   0.4842492   0.4810770  )
        22           Zn  tau(  22) = (  -0.1666672   0.4842252   0.0011795  )
        23           Zn  tau(  23) = (  -0.3339361   0.7693536   0.4834669  )
        24           Mg  tau(  24) = (  -0.3356781   0.7694609   0.0029578  )
        25           Zn  tau(  25) = (   0.3343745   0.1886865   0.4813940  )
        26           Mg  tau(  26) = (   0.3344511   0.1889137   0.0029568  )
        27           Mg  tau(  27) = (   0.1638130   0.4794066   0.4813698  )
        28           Zn  tau(  28) = (   0.1659535   0.4788341   0.0045182  )
        29           Zn  tau(  29) = (   0.0021823   0.7707374   0.4782063  )
        30           Zn  tau(  30) = (   0.0026477   0.7702490   0.0015185  )
        31           Mg  tau(  31) = (   0.6665713   0.1953299   0.4806308  )
        32           Zn  tau(  32) = (   0.6696641   0.1945390   0.0001942  )
        33           Zn  tau(  33) = (   0.4989183   0.4805923   0.4840475  )
        34           Zn  tau(  34) = (   0.4971822   0.4817499   0.0029140  )
        35           Mg  tau(  35) = (   0.3333609   0.7694711   0.4808865  )
        36           Mg  tau(  36) = (   0.3331948   0.7685585   0.0030187  )
        37           O   tau(  37) = (   0.1672289   0.0952164   0.0029361  )
        38           O   tau(  38) = (   0.1655335   0.0960859   0.4814633  )
        39           O   tau(  39) = (  -0.0019996   0.3851851   0.0030411  )
        40           O   tau(  40) = (  -0.0034176   0.3858666   0.4810021  )
        41           O   tau(  41) = (  -0.1663559   0.6768476   0.0012194  )
        42           O   tau(  42) = (  -0.1658264   0.6765104   0.4833926  )
        43           O   tau(  43) = (   0.5037070   0.0969017   0.0025437  )
        44           O   tau(  44) = (   0.5021061   0.0967897   0.4813193  )
        45           O   tau(  45) = (   0.3322778   0.3815779   0.0029962  )
        46           O   tau(  46) = (   0.3313909   0.3827364   0.4812949  )
        47           O   tau(  47) = (   0.1677091   0.6711788   0.0045569  )
        48           O   tau(  48) = (   0.1678433   0.6717770   0.4781303  )
        49           O   tau(  49) = (   0.8347209   0.0951681   0.0011053  )
        50           O   tau(  50) = (   0.8323216   0.0959039   0.4805556  )
        51           O   tau(  51) = (   0.6664485   0.3872720   0.0002339  )
        52           O   tau(  52) = (   0.6666749   0.3871072   0.4839733  )
        53           O   tau(  53) = (   0.4990089   0.6732553   0.0029531  )
        54           O   tau(  54) = (   0.4996703   0.6734276   0.4808117  )
        55           O   tau(  55) = (   0.0007980   0.1933410   0.2422271  )
        56           O   tau(  56) = (   0.0005333   0.1937295   0.7204283  )
        57           O   tau(  57) = (  -0.1674150   0.4840253   0.2425942  )
        58           O   tau(  58) = (  -0.1683258   0.4852297   0.7192890  )
        59           O   tau(  59) = (  -0.3352741   0.7696047   0.2411052  )
        60           O   tau(  60) = (  -0.3338955   0.7696380   0.7235658  )
        61           O   tau(  61) = (   0.3348875   0.1906103   0.2406635  )
        62           O   tau(  62) = (   0.3349686   0.1908682   0.7222490  )
        63           O   tau(  63) = (   0.1673797   0.4796661   0.2440319  )
        64           O   tau(  64) = (   0.1658213   0.4796994   0.7182924  )
        65           O   tau(  65) = (   0.0009008   0.7704783   0.2422421  )
        66           O   tau(  66) = (   0.0030193   0.7712033   0.7209356  )
        67           O   tau(  67) = (   0.6690970   0.1952300   0.2425367  )
        68           O   tau(  68) = (   0.6694971   0.1958665   0.7181834  )
        69           O   tau(  69) = (   0.4979068   0.4807586   0.2419439  )
        70           O   tau(  70) = (   0.4970986   0.4805805   0.7205196  )
        71           O   tau(  71) = (   0.3312036   0.7713810   0.2414595  )
        72           O   tau(  72) = (   0.3328835   0.7710058   0.7195381  )

   Crystallographic axes

     site n.     atom                  positions (cryst. coord.)
         1           Zn  tau(   1) = (  0.2227185  0.1113131  0.2530330  )
         2           Zn  tau(   2) = (  0.2224801  0.1112140  0.7526472  )
         3           Zn  tau(   3) = (  0.2218386  0.4451508  0.2532963  )
         4           Zn  tau(   4) = (  0.2196249  0.4457275  0.7513364  )
         5           Zn  tau(   5) = (  0.2241251  0.7818137  0.2516211  )
         6           Mg  tau(   6) = (  0.2266192  0.7818157  0.7556876  )
         7           Zn  tau(   7) = (  0.5588065  0.1113870  0.2515152  )
         8           Zn  tau(   8) = (  0.5603925  0.1118354  0.7546667  )
         9           Mg  tau(   9) = (  0.5536127  0.4413244  0.2549157  )
        10           Mg  tau(  10) = (  0.5532338  0.4420795  0.7504119  )
        11           Mg  tau(  11) = (  0.5531480  0.7751889  0.2529255  )
[...]
     atom   36 type  3   force =     0.00000000    0.00000000    0.00000000
     atom   37 type  2   force =     0.00184823   -0.00110696   -0.00004126
     atom   38 type  2   force =    -0.00014736    0.00002617   -0.00003625
     atom   39 type  2   force =    -0.00013723   -0.00010376   -0.00004542
     atom   40 type  2   force =    -0.00010033    0.00211565    0.00000785
     atom   41 type  2   force =    -0.00188209    0.00124163    0.00033708
     atom   42 type  2   force =     0.00011854   -0.00210899   -0.00019684
     atom   43 type  2   force =    -0.00181501    0.00107610    0.00003704
     atom   44 type  2   force =     0.00201754    0.00104856    0.00013975
     atom   45 type  2   force =     0.00005058   -0.00233874   -0.00004081
     atom   46 type  2   force =    -0.00190939    0.00101417   -0.00006629
     atom   47 type  2   force =     0.00187570    0.00103513   -0.00029681
     atom   48 type  2   force =     0.00182072   -0.00112724    0.00033583
     atom   49 type  2   force =     0.00011826   -0.00224238   -0.00006519
     atom   50 type  2   force =    -0.00182650   -0.00104949   -0.00001330
     atom   51 type  2   force =    -0.00010533    0.00014930    0.00029535
     atom   52 type  2   force =     0.00190110   -0.00102076   -0.00021066
     atom   53 type  2   force =     0.00006677    0.00211717   -0.00008230
     atom   54 type  2   force =    -0.00184628    0.00100786   -0.00013402
     atom   55 type  2   force =    -0.00177965   -0.00102357    0.00002749
     atom   56 type  2   force =    -0.00177182   -0.00102668    0.00007676
     atom   57 type  2   force =     0.00007303    0.00004700   -0.00034445
     atom   58 type  2   force =    -0.00189466    0.00116378    0.00014312
     atom   59 type  2   force =    -0.00020588    0.00000427    0.00039931
     atom   60 type  2   force =     0.00186959   -0.00107425   -0.00015752
     atom   61 type  2   force =     0.00004371    0.00206491    0.00031400
     atom   62 type  2   force =     0.00005986    0.00203634   -0.00028505
     atom   63 type  2   force =     0.00186097    0.00100538   -0.00020856
     atom   64 type  2   force =     0.00179094   -0.00129034    0.00035157
     atom   65 type  2   force =     0.00192256   -0.00105168   -0.00001103
     atom   66 type  2   force =    -0.00190437   -0.00096965   -0.00028536
     atom   67 type  2   force =     0.00192795   -0.00104268   -0.00036863
     atom   68 type  2   force =     0.00186172    0.00115944    0.00012857
     atom   69 type  2   force =    -0.00198110   -0.00106781    0.00009341
     atom   70 type  2   force =    -0.00004855   -0.00214331    0.00014312
     atom   71 type  2   force =    -0.00188176    0.00107867    0.00002095
     atom   72 type  2   force =     0.00003018    0.00222508   -0.00001068
     The Hubbard contrib.    to forces
     atom    1 type  1   force =     0.00000000    0.00000000    0.00000000
     atom    2 type  1   force =     0.00000000    0.00000000    0.00000000
     atom    3 type  1   force =     0.00000000    0.00000000    0.00000000
     atom    4 type  1   force =     0.00000000    0.00000000    0.00000000
     atom    5 type  1   force =     0.00000000    0.00000000    0.00000000
     atom    6 type  3   force =     0.00000000    0.00000000    0.00000000
     atom    7 type  1   force =     0.00000000    0.00000000    0.00000000
     atom    8 type  1   force =     0.00000000    0.00000000    0.00000000
     atom    9 type  3   force =     0.00000000    0.00000000    0.00000000
     atom   10 type  3   force =     0.00000000    0.00000000    0.00000000
     atom   11 type  3   force =     0.00000000    0.00000000    0.00000000
     atom   12 type  1   force =     0.00000000    0.00000000    0.00000000
     atom   13 type  3   force =     0.00000000    0.00000000    0.00000000
     atom   14 type  3   force =     0.00000000    0.00000000    0.00000000
     atom   15 type  1   force =     0.00000000    0.00000000    0.00000000
     atom   16 type  3   force =     0.00000000    0.00000000    0.00000000
     atom   17 type  1   force =     0.00000000    0.00000000    0.00000000
     atom   18 type  1   force =     0.00000000    0.00000000    0.00000000
     atom   19 type  1   force =     0.00000000    0.00000000    0.00000000
     atom   20 type  1   force =     0.00000000    0.00000000    0.00000000
     atom   21 type  3   force =     0.00000000    0.00000000    0.00000000
     atom   22 type  1   force =     0.00000000    0.00000000    0.00000000
     atom   23 type  1   force =     0.00000000    0.00000000    0.00000000
     atom   24 type  3   force =     0.00000000    0.00000000    0.00000000
     atom   25 type  1   force =     0.00000000    0.00000000    0.00000000
     atom   26 type  3   force =     0.00000000    0.00000000    0.00000000
     atom   27 type  3   force =     0.00000000    0.00000000    0.00000000
     atom   28 type  1   force =     0.00000000    0.00000000    0.00000000
     atom   29 type  1   force =     0.00000000    0.00000000    0.00000000
     atom   30 type  1   force =     0.00000000    0.00000000    0.00000000
     atom   31 type  3   force =     0.00000000    0.00000000    0.00000000
     atom   32 type  1   force =     0.00000000    0.00000000    0.00000000
     atom   33 type  1   force =     0.00000000    0.00000000    0.00000000
     atom   34 type  1   force =     0.00000000    0.00000000    0.00000000
     atom   35 type  3   force =     0.00000000    0.00000000    0.00000000
     atom   36 type  3   force =     0.00000000    0.00000000    0.00000000
     atom   37 type  2   force =     0.00000000    0.00000000    0.00000000
     atom   38 type  2   force =     0.00000000    0.00000000    0.00000000
     atom   39 type  2   force =     0.00000000    0.00000000    0.00000000
     atom   40 type  2   force =     0.00000000    0.00000000    0.00000000
     atom   41 type  2   force =     0.00000000    0.00000000    0.00000000
     atom   42 type  2   force =     0.00000000    0.00000000    0.00000000
     atom   43 type  2   force =     0.00000000    0.00000000    0.00000000
     atom   44 type  2   force =     0.00000000    0.00000000    0.00000000
     atom   45 type  2   force =     0.00000000    0.00000000    0.00000000
     atom   46 type  2   force =     0.00000000    0.00000000    0.00000000
     atom   47 type  2   force =     0.00000000    0.00000000    0.00000000
     atom   48 type  2   force =     0.00000000    0.00000000    0.00000000
     atom   49 type  2   force =     0.00000000    0.00000000    0.00000000
     atom   50 type  2   force =     0.00000000    0.00000000    0.00000000
     atom   51 type  2   force =     0.00000000    0.00000000    0.00000000
     atom   52 type  2   force =     0.00000000    0.00000000    0.00000000
     atom   53 type  2   force =     0.00000000    0.00000000    0.00000000
     atom   54 type  2   force =     0.00000000    0.00000000    0.00000000
     atom   55 type  2   force =     0.00000000    0.00000000    0.00000000
     atom   56 type  2   force =     0.00000000    0.00000000    0.00000000
     atom   57 type  2   force =     0.00000000    0.00000000    0.00000000
     atom   58 type  2   force =     0.00000000    0.00000000    0.00000000
     atom   59 type  2   force =     0.00000000    0.00000000    0.00000000
     atom   60 type  2   force =     0.00000000    0.00000000    0.00000000
     atom   61 type  2   force =     0.00000000    0.00000000    0.00000000
     atom   62 type  2   force =     0.00000000    0.00000000    0.00000000
     atom   63 type  2   force =     0.00000000    0.00000000    0.00000000
     atom   64 type  2   force =     0.00000000    0.00000000    0.00000000
     atom   65 type  2   force =     0.00000000    0.00000000    0.00000000
     atom   66 type  2   force =     0.00000000    0.00000000    0.00000000
     atom   67 type  2   force =     0.00000000    0.00000000    0.00000000
     atom   68 type  2   force =     0.00000000    0.00000000    0.00000000
     atom   69 type  2   force =     0.00000000    0.00000000    0.00000000
     atom   70 type  2   force =     0.00000000    0.00000000    0.00000000
     atom   71 type  2   force =     0.00000000    0.00000000    0.00000000
     atom   72 type  2   force =     0.00000000    0.00000000    0.00000000
     The SCF correction term to forces
     atom    1 type  1   force =    -0.00002187   -0.00001551    0.00000000
     atom    2 type  1   force =    -0.00000770   -0.00000034    0.00000000
     atom    3 type  1   force =    -0.00004062   -0.00000289    0.00000000
     atom    4 type  1   force =    -0.00002391   -0.00002038    0.00000000
     atom    5 type  1   force =    -0.00002646   -0.00002627    0.00000000
     atom    6 type  3   force =    -0.00001820   -0.00000293    0.00000000
     atom    7 type  1   force =     0.00004334    0.00001887    0.00000000
     atom    8 type  1   force =     0.00001550    0.00003591    0.00000000
     atom    9 type  3   force =     0.00000436    0.00000257    0.00000000
     atom   10 type  3   force =    -0.00000023   -0.00001454    0.00000000
     atom   11 type  3   force =     0.00001653    0.00001169    0.00000000
     atom   12 type  1   force =     0.00003793    0.00002010    0.00000000
     atom   13 type  3   force =    -0.00001054    0.00000054    0.00000000
     atom   14 type  3   force =     0.00000158   -0.00000259    0.00000000
     atom   15 type  1   force =     0.00003277   -0.00000927    0.00000000
     atom   16 type  3   force =     0.00000909   -0.00000578    0.00000000
     atom   17 type  1   force =    -0.00000544    0.00002579    0.00000000
     atom   18 type  1   force =     0.00000441    0.00002699    0.00000000
     atom   19 type  1   force =    -0.00000300   -0.00002944    0.00000000
     atom   20 type  1   force =    -0.00002150   -0.00001695    0.00000000
     atom   21 type  3   force =    -0.00000325   -0.00000026    0.00000000
     atom   22 type  1   force =    -0.00003892   -0.00002025    0.00000000
     atom   23 type  1   force =    -0.00002150    0.00001022    0.00000000
     atom   24 type  3   force =     0.00000239    0.00000121    0.00000000
     atom   25 type  1   force =    -0.00000854    0.00003536    0.00000000
     atom   26 type  3   force =     0.00002109    0.00000555    0.00000000
     atom   27 type  3   force =     0.00003216    0.00001369    0.00000000
     atom   28 type  1   force =     0.00002961   -0.00000800    0.00000000
     atom   29 type  1   force =     0.00005676   -0.00000560    0.00000000
     atom   30 type  1   force =     0.00001653    0.00003700    0.00000000
     atom   31 type  3   force =     0.00000610   -0.00001486    0.00000000
     atom   32 type  1   force =    -0.00000920    0.00000614    0.00000000
     atom   33 type  1   force =    -0.00006001   -0.00000448    0.00000000
     atom   34 type  1   force =     0.00000635   -0.00005471    0.00000000
     atom   35 type  3   force =    -0.00001778   -0.00000857    0.00000000
     atom   36 type  3   force =    -0.00001173    0.00002119    0.00000000
     atom   37 type  2   force =     0.00000263   -0.00000112    0.00000000
     atom   38 type  2   force =    -0.00000108   -0.00000059    0.00000000
     atom   39 type  2   force =    -0.00000200    0.00000013    0.00000000
     atom   40 type  2   force =     0.00000338    0.00000258    0.00000000
     atom   41 type  2   force =    -0.00000271    0.00000115    0.00000000
     atom   42 type  2   force =    -0.00000012   -0.00000195    0.00000000
     atom   43 type  2   force =     0.00000301    0.00000502    0.00000000
     atom   44 type  2   force =     0.00000487    0.00000170    0.00000000
     atom   45 type  2   force =     0.00000382   -0.00000391    0.00000000
     atom   46 type  2   force =    -0.00000431    0.00000478    0.00000000
     atom   47 type  2   force =     0.00000585    0.00000702    0.00000000
     atom   48 type  2   force =     0.00001155    0.00000051    0.00000000
     atom   49 type  2   force =    -0.00000565   -0.00000770    0.00000000
     atom   50 type  2   force =    -0.00000649   -0.00000706    0.00000000
     atom   51 type  2   force =    -0.00000080   -0.00000437    0.00000000
     atom   52 type  2   force =    -0.00000140   -0.00000347    0.00000000
     atom   53 type  2   force =    -0.00000636    0.00000324    0.00000000
     atom   54 type  2   force =    -0.00000904    0.00000473    0.00000000
     atom   55 type  2   force =    -0.00000555   -0.00000179    0.00000000
     atom   56 type  2   force =    -0.00000925   -0.00000480    0.00000000
     atom   57 type  2   force =    -0.00000260   -0.00000197    0.00000000
     atom   58 type  2   force =    -0.00000638   -0.00000467    0.00000000
     atom   59 type  2   force =    -0.00000023   -0.00000076    0.00000000
     atom   60 type  2   force =    -0.00000138   -0.00000239    0.00000000
     atom   61 type  2   force =     0.00000241    0.00000411    0.00000000
     atom   62 type  2   force =     0.00000352    0.00000872    0.00000000
     atom   63 type  2   force =     0.00000419    0.00000145    0.00000000
     atom   64 type  2   force =     0.00000583   -0.00000013    0.00000000
     atom   65 type  2   force =     0.00000456   -0.00000098    0.00000000
     atom   66 type  2   force =     0.00000705    0.00000193    0.00000000
     atom   67 type  2   force =     0.00000620   -0.00000191    0.00000000
     atom   68 type  2   force =     0.00000560   -0.00000134    0.00000000
     atom   69 type  2   force =    -0.00000094   -0.00000494    0.00000000
     atom   70 type  2   force =    -0.00000042   -0.00000580    0.00000000
     atom   71 type  2   force =    -0.00000642    0.00000509    0.00000000
     atom   72 type  2   force =    -0.00000417    0.00000658    0.00000000

     Total force =     0.000145     Total SCF correction =     0.000192
     SCF correction compared to forces is large: reduce conv_thr to get better values

     Computing stress (Cartesian axis) and pressure

          total   stress  (Ry/bohr**3)                   (kbar)     P=  146.08
   0.00148422   0.00000032   0.00000045        218.34      0.05      0.07
   0.00000032   0.00148699  -0.00000036          0.05    218.74     -0.05
   0.00000045  -0.00000036   0.00000799          0.07     -0.05      1.17

     kinetic stress (kbar)  31169.03      1.69      0.01
                                1.69  31170.66     -0.05
                                0.01     -0.05  31490.36

     local   stress (kbar)  -8042.50     11.50   2002.89
                               11.50 -14017.09  -1368.85
                             2002.89  -1368.85  -3769.24

     nonloc. stress (kbar)   1219.76     -0.51     -0.15
                               -0.51   1221.13      0.07
                               -0.15      0.07    971.98

     hartree stress (kbar)  51508.06     -7.41   -972.69
                               -7.41  54411.05    665.25
                             -972.69    665.25  51772.76

     exc-cor stress (kbar) -12513.50      0.02     -0.01
                                0.02 -12513.50      0.00
                               -0.01      0.00 -12525.21

     corecor stress (kbar)   -276.37     -0.00     -0.00
                               -0.00   -276.38      0.00
                               -0.00      0.00   -276.64

     ewald   stress (kbar) -62846.14     -5.23  -1029.98
                               -5.23 -59777.14    703.52
                            -1029.98    703.52 -67662.83

     hubbard stress (kbar)      0.00      0.00      0.00
                                0.00      0.00      0.00
                                0.00      0.00      0.00

     london  stress (kbar)      0.00      0.00      0.00
                                0.00      0.00      0.00
                                0.00      0.00      0.00

     DFT-D3  stress (kbar)      0.00      0.00      0.00
                                0.00      0.00      0.00
                                0.00      0.00      0.00

     XDM     stress (kbar)      0.00      0.00      0.00
                                0.00      0.00      0.00
                                0.00      0.00      0.00

     dft-nl  stress (kbar)      0.00      0.00      0.00
                                0.00      0.00      0.00
                                0.00      0.00      0.00

     TS-vdW  stress (kbar)      0.00      0.00      0.00
                                0.00      0.00      0.00
                                0.00      0.00      0.00

     Writing output data file ZnO.save/

     General routines

     Parallel routines

   This run was terminated on:  21:56:28   8Nov2021

   JOB DONE.