     Program PWSCF v.6.4.1 starts on 15Jul2022 at  1:25:17

     K-points division:     npool     =       8
     R & G space division:  proc/nbgrp/npool/nimage =      16
     Waiting for input...
     Reading input from standard input
Warning: card &IONS ignored
Warning: card   UPSCALE           = 100.D0, ignored
Warning: card / ignored
Warning: card &CELL ignored
Warning: card   CELL_DYNAMICS     = 'BFGS' ignored
Warning: card   PRESS_CONV_THR    = 0.5D0 ignored
Warning: card   CELL_DOFREE = 'ALL' ignored
Warning: card / ignored

     Current dimensions of program PWSCF are:
     Max number of different atomic species (ntypx) = 10
     Max number of k-points (npk) =  40000
     Max angular momentum in pseudopotentials (lmaxx) =  3

     bravais-lattice index     =            0
     lattice parameter (alat)  =      18.3818  a.u.
     unit-cell volume          =    5697.3139 (a.u.)^3
     number of atoms/cell      =           72
     number of atomic types    =            3
     number of electrons       =       856.00
     number of Kohn-Sham states=          514
     kinetic-energy cutoff     =      60.0000  Ry
     charge density cutoff     =     500.0000  Ry
     convergence threshold     =      1.0E-08
     mixing beta               =       0.5000
     number of iterations used =            8  plain     mixing
     Exchange-correlation      = SLA  PW   PSX  PSC ( 1  4 10  8 0 0)

     celldm(1)=  18.381787  celldm(2)=   0.000000  celldm(3)=   0.000000
     celldm(4)=   0.000000  celldm(5)=   0.000000  celldm(6)=   0.000000

     crystal axes: (cart. coord. in units of alat)
               a(1) = (   1.000000   0.000460  -0.000016 )
               a(2) = (  -0.499600   0.866214   0.000205 )
               a(3) = (  -0.000017   0.000244   1.058685 )

     reciprocal axes: (cart. coord. in units 2 pi/alat)
               b(1) = (  0.999735  0.576610 -0.000117 )
               b(2) = ( -0.000531  1.154143 -0.000266 )
               b(3) = (  0.000015 -0.000215  0.944568 )

     PseudoPot. # 1 for Zn read from file:
     ./GBRV_PBEsol/zn_pbesol_v1.uspp.F.UPF
     MD5 check sum: 7d8615e52efe7c1e2b1899de8658bae2
     Pseudo is Ultrasoft, Zval = 20.0
     Generated by new atomic code, or converted to UPF format
     Using radial grid of  943 points,  6 beta functions with:
                l(1) =   0
                l(2) =   0
                l(3) =   1
                l(4) =   1
                l(5) =   2
                l(6) =   2
     Q(r) pseudized with  8 coefficients,  rinner =    1.100   1.100   1.100
                                                       1.100   1.100

     PseudoPot. # 2 for O  read from file:
     ./GBRV_PBEsol/o_pbesol_v1.2.uspp.F.UPF
     MD5 check sum: 501638753501ef6325af9037351f7734
     Pseudo is Ultrasoft + core correction, Zval =  6.0
     Generated by new atomic code, or converted to UPF format
     Using radial grid of  737 points,  5 beta functions with:
                l(1) =   0
                l(2) =   0
                l(3) =   1
                l(4) =   1
                l(5) =   2
     Q(r) pseudized with  8 coefficients,  rinner =    0.900   0.900   0.900
                                                       0.900   0.900

     PseudoPot. # 3 for Mg read from file:
     ./GBRV_PBEsol/mg_pbesol_v1.4.uspp.F.UPF
     MD5 check sum: 4059f37963cf5867752dbf5ab2400678
     Pseudo is Ultrasoft, Zval = 10.0
     Generated by new atomic code, or converted to UPF format
     Using radial grid of  821 points,  7 beta functions with:
                l(1) =   0
                l(2) =   0
                l(3) =   0
                l(4) =   1
                l(5) =   1
                l(6) =   2
                l(7) =   2
     Q(r) pseudized with  8 coefficients,  rinner =    1.200   1.200   1.200
                                                       1.200   1.200

     atomic species   valence    mass     pseudopotential
        Zn            20.00    65.38000     Zn( 1.00)
        O              6.00    15.99900     O ( 1.00)
        Mg            10.00    24.30500     Mg( 1.00)

     No symmetry found

                                    s                        frac. trans.

      isym =  1     identity

 cryst.   s( 1) = (     1          0          0      )
                  (     0          1          0      )
                  (     0          0          1      )

 cart.    s( 1) = (  1.0000000  0.0000000  0.0000000 )
                  ( -0.0000000  1.0000000  0.0000000 )
                  (  0.0000000 -0.0000000  1.0000000 )

   Cartesian axes

     site n.     atom                  positions (alat units)
         1           Zn  tau(   1) = (   0.1657107   0.0972337   0.2062355  )
         2           Zn  tau(   2) = (   0.1688586   0.0950958   0.7352388  )
         3           Zn  tau(   3) = (   0.0007190   0.3850468   0.2050455  )
         4           Zn  tau(   4) = (   0.0005452   0.3863756   0.7343381  )
         5           Zn  tau(   5) = (  -0.1658192   0.6744935   0.2069700  )
         6           Zn  tau(   6) = (  -0.1657955   0.6740529   0.7364655  )
         7           Zn  tau(   7) = (   0.4987906   0.0964898   0.2062439  )
         8           Zn  tau(   8) = (   0.5006126   0.0959536   0.7355215  )
         9           Zn  tau(   9) = (   0.3326905   0.3864835   0.2034802  )
        10           Mg  tau(  10) = (   0.3351570   0.3834581   0.7360655  )
        11           Mg  tau(  11) = (   0.1669484   0.6759160   0.2064013  )
        12           Zn  tau(  12) = (   0.1672731   0.6737261   0.7333579  )
        13           Zn  tau(  13) = (   0.8351328   0.0969753   0.2053010  )
        14           Zn  tau(  14) = (   0.8311369   0.0961737   0.7351288  )
        15           Mg  tau(  15) = (   0.6667010   0.3873549   0.2081086  )
        16           Zn  tau(  16) = (   0.6665904   0.3850649   0.7330934  )
        17           Zn  tau(  17) = (   0.4997694   0.6750269   0.2050512  )
        18           Mg  tau(  18) = (   0.5015841   0.6744118   0.7370885  )
        19           Mg  tau(  19) = (  -0.0009828   0.1920901   0.4726441  )
        20           Zn  tau(  20) = (  -0.0005519   0.1923022   0.9983944  )
        21           Zn  tau(  21) = (  -0.1646751   0.4815030   0.4711113  )
        22           Zn  tau(  22) = (  -0.1682629   0.4803894   1.0005745  )
        23           Zn  tau(  23) = (  -0.3330659   0.7698103   0.4706913  )
        24           Zn  tau(  24) = (  -0.3319428   0.7706761   1.0006452  )
        25           Zn  tau(  25) = (   0.3333409   0.1936619   0.4706296  )
        26           Zn  tau(  26) = (   0.3336423   0.1914202   1.0007346  )
        27           Mg  tau(  27) = (   0.1669979   0.4808437   0.4696287  )
        28           Mg  tau(  28) = (   0.1654234   0.4826157   0.9985571  )
        29           Zn  tau(  29) = (  -0.0003421   0.7711937   0.4711235  )
        30           Zn  tau(  30) = (   0.0008930   0.7703070   1.0006042  )
        31           Zn  tau(  31) = (   0.6663279   0.1913339   0.4686799  )
        32           Mg  tau(  32) = (   0.6665545   0.1934924   1.0005611  )
        33           Zn  tau(  33) = (   0.4980741   0.4823481   0.4699903  )
        34           Zn  tau(  34) = (   0.5023552   0.4804528   0.9990271  )
        35           Zn  tau(  35) = (   0.3344146   0.7709027   0.4706423  )
        36           Zn  tau(  36) = (   0.3320127   0.7708245   0.9997053  )
        37           O   tau(  37) = (   0.1660806   0.0965662   0.0033094  )
        38           O   tau(  38) = (   0.1666205   0.0963875   0.5317843  )
        39           O   tau(  39) = (   0.0000964   0.3846750   0.0017468  )
        40           O   tau(  40) = (   0.0013411   0.3845817   0.5314429  )
        41           O   tau(  41) = (  -0.1658636   0.6731631   0.0033726  )
        42           O   tau(  42) = (  -0.1663515   0.6738498   0.5331584  )
        43           O   tau(  43) = (   0.5005938   0.0961937   0.0029284  )
        44           O   tau(  44) = (   0.4997033   0.0970851   0.5324604  )
        45           O   tau(  45) = (   0.3327628   0.3855952  -0.0002716  )
        46           O   tau(  46) = (   0.3326590   0.3855878   0.5339108  )
        47           O   tau(  47) = (   0.1668270   0.6732377   0.0045376  )
        48           O   tau(  48) = (   0.1670253   0.6735029   0.5296663  )
        49           O   tau(  49) = (   0.8331516   0.0967532   0.0020891  )
        50           O   tau(  50) = (   0.8326208   0.0966411   0.5322075  )
        51           O   tau(  51) = (   0.6667793   0.3842716   0.0059145  )
        52           O   tau(  52) = (   0.6666009   0.3852852   0.5292639  )
        53           O   tau(  53) = (   0.5001888   0.6738674   0.0011441  )
        54           O   tau(  54) = (   0.5004586   0.6743505   0.5345017  )
        55           O   tau(  55) = (  -0.0000267   0.1934332   0.2701070  )
        56           O   tau(  56) = (   0.0001416   0.1921349   0.7944792  )
        57           O   tau(  57) = (  -0.1659312   0.4818243   0.2677552  )
        58           O   tau(  58) = (  -0.1668582   0.4808247   0.7969653  )
        59           O   tau(  59) = (  -0.3333241   0.7703675   0.2674409  )
        60           O   tau(  60) = (  -0.3323524   0.7698245   0.7977652  )
        61           O   tau(  61) = (   0.3327581   0.1941679   0.2672127  )
        62           O   tau(  62) = (   0.3340897   0.1919364   0.7974428  )
        63           O   tau(  63) = (   0.1667643   0.4831944   0.2668763  )
        64           O   tau(  64) = (   0.1684387   0.4810033   0.7960771  )
        65           O   tau(  65) = (   0.0002936   0.7709084   0.2681310  )
        66           O   tau(  66) = (   0.0013620   0.7696519   0.7971705  )
        67           O   tau(  67) = (   0.6667638   0.1935231   0.2651858  )
        68           O   tau(  68) = (   0.6662601   0.1935925   0.7983853  )
        69           O   tau(  69) = (   0.4991743   0.4825393   0.2669760  )
        70           O   tau(  70) = (   0.5005584   0.4816828   0.7957858  )
        71           O   tau(  71) = (   0.3338011   0.7710822   0.2674203  )
        72           O   tau(  72) = (   0.3337886   0.7697816   0.7964433  )

   Crystallographic axes

     site n.     atom                  positions (cryst. coord.)
         1           Zn  tau(   1) = (  0.2217086  0.1120788  0.1947851  )
         2           Zn  tau(   2) = (  0.2235613  0.1094692  0.6944654  )
         3           Zn  tau(   3) = (  0.2227168  0.4443443  0.1935968  )
         4           Zn  tau(   4) = (  0.2232474  0.4457374  0.6935496  )
         5           Zn  tau(   5) = (  0.2231203  0.7784950  0.1953501  )
         6           Zn  tau(   6) = (  0.2228281  0.7778458  0.6954948  )
         7           Zn  tau(   7) = (  0.5542712  0.1110434  0.1947981  )
         8           Zn  tau(   8) = (  0.5557219  0.1102830  0.6947372  )
         9           Zn  tau(   9) = (  0.5554288  0.4458266  0.1921229  )
        10           Mg  tau(  10) = (  0.5560880  0.4421920  0.6951869  )
        11           Mg  tau(  11) = (  0.5566199  0.7799603  0.1948175  )
[...]
     6.3111   6.3399   6.3446   6.3879   6.4302   6.5199   6.5874   6.6161
     6.6804   6.6888   6.7167   6.7332   6.7550   6.7796   6.7947   6.8193
     6.8433   6.8482   6.8624   6.8917   6.9039   6.9253   6.9279   6.9362
     6.9452   6.9501   6.9706   6.9752   6.9932   7.0078   7.0268   7.1127
     7.2177   7.2542   7.2653   7.2860   7.3020   7.3171   7.3398   7.3520
     7.3736   7.4205   7.4545   7.4930   7.5277   7.6504   7.6607   7.6735
     7.7122   7.9669   7.9981   8.0083   9.2931  11.8673  11.8771  12.5385
    12.5568  12.6285  12.6628  12.6995  12.9003  13.4743  13.4922  13.5067
    13.5194  13.5401  13.5657  13.6068  13.6458  13.6749  13.7296  13.8384
    13.9073  14.0379  15.6568  15.6786  15.7080  15.7322  15.7500  15.7971
    15.8282  15.8975  15.9433  15.9702  15.9904  16.0089  16.0197  16.0352
    16.0439  16.0663  16.0769  16.1066  16.1292  16.1477  16.1892  16.2128
    16.3009  16.4095  16.4337  16.4870  16.5683  16.6001  16.6620  16.9382
    16.9447  16.9550  16.9624  16.9728  17.0332  17.0369  17.0602  17.0699
    17.0750  17.0967  17.1027  17.1073  17.1104  17.5275  17.6869  17.8758
    18.1144  18.2346  18.3023  18.3332  18.4690  18.6470  18.8164  19.0320
    19.0715  19.1818  19.1959  19.3093  19.3627  19.3773  19.3995  19.4487
    19.4633  19.5133

     occupation numbers
     1.0000   1.0000   1.0000   1.0000   1.0000   1.0000   1.0000   1.0000
     1.0000   1.0000   1.0000   1.0000   1.0000   1.0000   1.0000   1.0000
     1.0000   1.0000   1.0000   1.0000   1.0000   1.0000   1.0000   1.0000
     1.0000   1.0000   1.0000   1.0000   1.0000   1.0000   1.0000   1.0000
     1.0000   1.0000   1.0000   1.0000   1.0000   1.0000   1.0000   1.0000
     1.0000   1.0000   1.0000   1.0000   1.0000   1.0000   1.0000   1.0000
     1.0000   1.0000   1.0000   1.0000   1.0000   1.0000   1.0000   1.0000
     1.0000   1.0000   1.0000   1.0000   1.0000   1.0000   1.0000   1.0000
     1.0000   1.0000   1.0000   1.0000   1.0000   1.0000   1.0000   1.0000
     1.0000   1.0000   1.0000   1.0000   1.0000   1.0000   1.0000   1.0000
     1.0000   1.0000   1.0000   1.0000   1.0000   1.0000   1.0000   1.0000
     1.0000   1.0000   1.0000   1.0000   1.0000   1.0000   1.0000   1.0000
     1.0000   1.0000   1.0000   1.0000   1.0000   1.0000   1.0000   1.0000
     1.0000   1.0000   1.0000   1.0000   1.0000   1.0000   1.0000   1.0000
     1.0000   1.0000   1.0000   1.0000   1.0000   1.0000   1.0000   1.0000
     1.0000   1.0000   1.0000   1.0000   1.0000   1.0000   1.0000   1.0000
     1.0000   1.0000   1.0000   1.0000   1.0000   1.0000   1.0000   1.0000
     1.0000   1.0000   1.0000   1.0000   1.0000   1.0000   1.0000   1.0000
     1.0000   1.0000   1.0000   1.0000   1.0000   1.0000   1.0000   1.0000
     1.0000   1.0000   1.0000   1.0000   1.0000   1.0000   1.0000   1.0000
     1.0000   1.0000   1.0000   1.0000   1.0000   1.0000   1.0000   1.0000
     1.0000   1.0000   1.0000   1.0000   1.0000   1.0000   1.0000   1.0000
     1.0000   1.0000   1.0000   1.0000   1.0000   1.0000   1.0000   1.0000
     1.0000   1.0000   1.0000   1.0000   1.0000   1.0000   1.0000   1.0000
     1.0000   1.0000   1.0000   1.0000   1.0000   1.0000   1.0000   1.0000
     1.0000   1.0000   1.0000   1.0000   1.0000   1.0000   1.0000   1.0000
     1.0000   1.0000   1.0000   1.0000   1.0000   1.0000   1.0000   1.0000
     1.0000   1.0000   1.0000   1.0000   1.0000   1.0000   1.0000   1.0000
     1.0000   1.0000   1.0000   1.0000   1.0000   1.0000   1.0000   1.0000
     1.0000   1.0000   1.0000   1.0000   1.0000   1.0000   1.0000   1.0000
     1.0000   1.0000   1.0000   1.0000   1.0000   1.0000   1.0000   1.0000
     1.0000   1.0000   1.0000   1.0000   1.0000   1.0000   1.0000   1.0000
     1.0000   1.0000   1.0000   1.0000   1.0000   1.0000   1.0000   1.0000
     1.0000   1.0000   1.0000   1.0000   1.0000   1.0000   1.0000   1.0000
     1.0000   1.0000   1.0000   1.0000   1.0000   1.0000   1.0000   1.0000
     1.0000   1.0000   1.0000   1.0000   1.0000   1.0000   1.0000   1.0000
     1.0000   1.0000   1.0000   1.0000   1.0000   1.0000   1.0000   1.0000
     1.0000   1.0000   1.0000   1.0000   1.0000   1.0000   1.0000   1.0000
     1.0000   1.0000   1.0000   1.0000   1.0000   1.0000   1.0000   1.0000
     1.0000   1.0000   1.0000   1.0000   1.0000   1.0000   1.0000   1.0000
     1.0000   1.0000   1.0000   1.0000   1.0000   1.0000   1.0000   1.0000
     1.0000   1.0000   1.0000   1.0000   1.0000   1.0000   1.0000   1.0000
     1.0000   1.0000   1.0000   1.0000   1.0000   1.0000   1.0000   1.0000
     1.0000   1.0000   1.0000   1.0000   1.0000   1.0000   1.0000   1.0000
     1.0000   1.0000   1.0000   1.0000   1.0000   1.0000   1.0000   1.0000
     1.0000   1.0000   1.0000   1.0000   1.0000   1.0000   1.0000   1.0000
     1.0000   1.0000   1.0000   1.0000   1.0000   1.0000   1.0000   1.0000
     1.0000   1.0000   1.0000   1.0000   1.0000   1.0000   1.0000   1.0000
     1.0000   1.0000   1.0000   1.0000   1.0000   1.0000   1.0000   1.0000
     1.0000   1.0000   1.0000   1.0000   1.0000   1.0000   1.0000   1.0000
     1.0000   1.0000   1.0000   1.0000   1.0000   1.0000   1.0000   1.0000
     1.0000   1.0000   1.0000   1.0000   1.0000   1.0000   1.0000   1.0000
     1.0000   1.0000   1.0000   1.0000   1.0000   1.0000   1.0000   1.0000
     1.0000   1.0000   1.0000   1.0000   0.0000   0.0000   0.0000   0.0000
     0.0000   0.0000   0.0000   0.0000   0.0000   0.0000   0.0000   0.0000
     0.0000   0.0000   0.0000   0.0000   0.0000   0.0000   0.0000   0.0000
     0.0000   0.0000   0.0000   0.0000   0.0000   0.0000   0.0000   0.0000
     0.0000   0.0000   0.0000   0.0000   0.0000   0.0000   0.0000   0.0000
     0.0000   0.0000   0.0000   0.0000   0.0000   0.0000   0.0000   0.0000
     0.0000   0.0000   0.0000   0.0000   0.0000   0.0000   0.0000   0.0000
     0.0000   0.0000   0.0000   0.0000   0.0000   0.0000   0.0000   0.0000
     0.0000   0.0000   0.0000   0.0000   0.0000   0.0000   0.0000   0.0000
     0.0000   0.0000   0.0000   0.0000   0.0000   0.0000   0.0000   0.0000
     0.0000   0.0000   0.0000   0.0000   0.0000   0.0000   0.0000   0.0000
     0.0000   0.0000

[...]

          k =-0.0000 0.0001-0.4723 ( 44744 PWs)   bands (ev):

[...]

          k = 0.2501-0.1443-0.2361 ( 44698 PWs)   bands (ev):

[...]

          k =-0.4996-0.8653-0.4721 ( 44712 PWs)   bands (ev):

  -114.9067-114.9041-114.9013-114.8984-114.8977-114.8972-114.8946-114.8942
  -114.8941-114.8938-114.8938-114.8935-114.8922-114.8917-114.8903-114.8884
  -114.8865-114.8860-114.8857-114.8856-114.8852-114.8842-114.8836-114.8815
  -114.8801-114.8788-114.8776-114.8752 -69.2673 -69.2651 -69.2645 -69.2624
   -69.2601 -69.2594 -69.2593 -69.2586 -69.2584 -69.2583 -69.2580 -69.2575
   -69.2564 -69.2562 -69.2560 -69.2555 -69.2554 -69.2552 -69.2550 -69.2548
   -69.2544 -69.2541 -69.2531 -69.2530 -69.2527 -69.2519 -69.2515 -69.2513
   -69.2510 -69.2507 -69.2507 -69.2500 -69.2499 -69.2499 -69.2488 -69.2486
   -69.2484 -69.2483 -69.2483 -69.2481 -69.2479 -69.2475 -69.2469 -69.2468
   -69.2464 -69.2463 -69.2461 -69.2460 -69.2460 -69.2450 -69.2446 -69.2444
   -69.2443 -69.2434 -69.2431 -69.2431 -69.2427 -69.2425 -69.2422 -69.2419
   -69.2415 -69.2414 -69.2410 -69.2408 -69.2407 -69.2404 -69.2402 -69.2398
   -69.2393 -69.2393 -69.2379 -69.2373 -69.2372 -69.2371 -69.2360 -69.2356
   -69.2355 -69.2347 -69.2340 -69.2337 -69.2326 -69.2319 -69.2303 -69.2286
   -64.3508 -64.3449 -64.3354 -64.3342 -64.3333 -64.3327 -64.3308 -64.3163
   -31.3444 -31.3391 -31.3391 -31.3365 -31.3333 -31.3319 -31.3312 -31.3267
   -31.3265 -31.3251 -31.3241 -31.3215 -31.3213 -31.3208 -31.3204 -31.3197
   -31.3191 -31.3181 -31.3169 -31.3161 -31.3126 -31.3066 -31.3020 -31.3001
    -9.5321  -9.5125  -9.4385  -9.4048  -9.2661  -9.2625  -9.2281  -9.1962
    -9.0623  -9.0512  -9.0372  -9.0165  -9.0049  -8.9749  -8.9655  -8.9440
    -8.9303  -8.9192  -8.9072  -8.8982  -8.8960  -8.8734  -8.8655  -8.8426
    -8.8298  -8.7850  -8.7795  -8.7673  -8.7580  -8.7560  -8.6932  -8.6778
    -8.6540  -8.6403  -8.6277  -8.6077   2.1909   2.2054   2.2243   2.2310
     2.2354   2.2455   2.2626   2.2749   2.2966   2.3115   2.3235   2.3407
     2.3575   2.3674   2.3806   2.3930   2.4007   2.4086   2.4186   2.4248
     2.4332   2.4532   2.4624   2.4737   2.4918   2.5065   2.5166   2.5336
     2.5602   2.5748   2.5888   2.5974   2.6060   2.6222   2.6332   2.6488
     2.6595   2.6710   2.6813   2.6874   2.6909   2.7118   2.7147   2.7250
     2.7391   2.7544   2.7617   2.7790   2.7884   2.7907   2.7997   2.8027
     2.8208   2.8253   2.8448   2.8492   2.8711   2.8806   2.8860   2.8941
     2.9035   2.9160   2.9245   2.9447   2.9520   2.9622   2.9730   2.9909
     2.9976   3.0056   3.0128   3.0262   3.0325   3.0414   3.0545   3.0623
     3.0851   3.0960   3.1224   3.1295   3.1502   3.1602   3.1655   3.1959
     3.2806   3.2985   3.3259   3.3365   3.3718   3.3917   3.4151   3.4242
     3.4407   3.4734   3.5121   3.5446   3.5587   3.5777   3.5916   3.6075
     3.6238   3.6322   3.6600   3.6639   3.6778   3.6829   3.6979   3.7040
     3.7121   3.7159   3.7286   3.7330   3.7477   3.7526   3.7725   3.7746
     3.7834   3.7886   3.8081   3.8160   3.8183   3.8249   3.8307   3.8478
     3.8544   3.8644   3.8721   3.8765   3.8787   3.8959   3.9009   3.9083
     3.9110   3.9242   3.9268   3.9423   3.9588   4.0098   4.0245   4.0378
     4.2027   4.2097   4.2299   4.2465   4.2810   4.2973   4.3459   4.3520
     4.4071   4.4410   4.4703   4.4802   4.4851   4.5294   4.5359   4.5665
     4.5963   4.6441   4.7180   4.7873   4.8049   4.8116   4.8406   4.8622
     4.9363   5.0245   5.0365   5.1182   5.3062   5.3390   5.3908   5.4147
     5.4519   5.5155   5.5339   5.5692   5.5881   5.6145   5.6434   5.6834
     5.7701   5.8361   5.8517   5.8758   5.9182   5.9466   5.9801   5.9901
     6.0278   6.0422   6.0482   6.0678   6.0873   6.0991   6.1303   6.1503
     6.1872   6.2895   6.3132   6.3550   6.3933   6.4025   6.4740   6.5134
     6.5437   6.5619   6.5769   6.6090   6.6215   6.6490   6.6806   6.7065
     6.7236   6.7437   6.8028   6.8342   6.8641   6.8873   6.9138   6.9293
     6.9451   6.9829   7.0097   7.0348   7.0511   7.0603   7.0615   7.0680
     7.1012   7.1187   7.1419   7.1702   7.1860   7.2053   7.2952   7.3141
     7.3362   7.3943   7.4679   7.4996   7.5449   7.5714   7.6120   7.6220
     7.7028   7.7381   7.8003   7.8371  11.1429  11.2042  11.3055  11.3834
    12.4601  12.4824  12.5906  12.6274  13.6964  13.7780  13.8658  13.9061
    13.9377  13.9755  14.0465  14.1026  14.1503  14.2161  14.2598  14.3781
    14.4513  14.5466  14.6743  14.6919  14.8685  14.8913  14.9866  15.0228
    15.2020  15.2405  15.2728  15.2928  15.3167  15.3525  15.3850  15.4086
    16.2145  16.2435  16.3863  16.4102  16.4213  16.4492  16.4663  16.5069
    16.5843  16.6314  16.7832  16.7982  16.8213  16.8326  16.8402  16.8556
    16.8714  16.9037  16.9234  16.9431  17.1642  17.2186  17.3232  17.4784
    17.5129  17.7222  17.7543  17.9168  18.0104  18.0546  18.1226  18.1706
    18.3485  18.3934  18.4247  18.4846  18.5797  18.6327  18.7453  18.8496
    18.9487  19.0004  19.1615  19.2174  19.2730  19.3970  19.4233  19.4552
    19.5024  19.5125

     occupation numbers
     1.0000   1.0000   1.0000   1.0000   1.0000   1.0000   1.0000   1.0000
     1.0000   1.0000   1.0000   1.0000   1.0000   1.0000   1.0000   1.0000
     1.0000   1.0000   1.0000   1.0000   1.0000   1.0000   1.0000   1.0000
     1.0000   1.0000   1.0000   1.0000   1.0000   1.0000   1.0000   1.0000
     1.0000   1.0000   1.0000   1.0000   1.0000   1.0000   1.0000   1.0000
     1.0000   1.0000   1.0000   1.0000   1.0000   1.0000   1.0000   1.0000
     1.0000   1.0000   1.0000   1.0000   1.0000   1.0000   1.0000   1.0000
     1.0000   1.0000   1.0000   1.0000   1.0000   1.0000   1.0000   1.0000
     1.0000   1.0000   1.0000   1.0000   1.0000   1.0000   1.0000   1.0000
     1.0000   1.0000   1.0000   1.0000   1.0000   1.0000   1.0000   1.0000
     1.0000   1.0000   1.0000   1.0000   1.0000   1.0000   1.0000   1.0000
     1.0000   1.0000   1.0000   1.0000   1.0000   1.0000   1.0000   1.0000
     1.0000   1.0000   1.0000   1.0000   1.0000   1.0000   1.0000   1.0000
     1.0000   1.0000   1.0000   1.0000   1.0000   1.0000   1.0000   1.0000
     1.0000   1.0000   1.0000   1.0000   1.0000   1.0000   1.0000   1.0000
     1.0000   1.0000   1.0000   1.0000   1.0000   1.0000   1.0000   1.0000
     1.0000   1.0000   1.0000   1.0000   1.0000   1.0000   1.0000   1.0000
     1.0000   1.0000   1.0000   1.0000   1.0000   1.0000   1.0000   1.0000
     1.0000   1.0000   1.0000   1.0000   1.0000   1.0000   1.0000   1.0000
     1.0000   1.0000   1.0000   1.0000   1.0000   1.0000   1.0000   1.0000
     1.0000   1.0000   1.0000   1.0000   1.0000   1.0000   1.0000   1.0000
     1.0000   1.0000   1.0000   1.0000   1.0000   1.0000   1.0000   1.0000
     1.0000   1.0000   1.0000   1.0000   1.0000   1.0000   1.0000   1.0000
     1.0000   1.0000   1.0000   1.0000   1.0000   1.0000   1.0000   1.0000
     1.0000   1.0000   1.0000   1.0000   1.0000   1.0000   1.0000   1.0000
     1.0000   1.0000   1.0000   1.0000   1.0000   1.0000   1.0000   1.0000
     1.0000   1.0000   1.0000   1.0000   1.0000   1.0000   1.0000   1.0000
     1.0000   1.0000   1.0000   1.0000   1.0000   1.0000   1.0000   1.0000
     1.0000   1.0000   1.0000   1.0000   1.0000   1.0000   1.0000   1.0000
     1.0000   1.0000   1.0000   1.0000   1.0000   1.0000   1.0000   1.0000
     1.0000   1.0000   1.0000   1.0000   1.0000   1.0000   1.0000   1.0000
     1.0000   1.0000   1.0000   1.0000   1.0000   1.0000   1.0000   1.0000
     1.0000   1.0000   1.0000   1.0000   1.0000   1.0000   1.0000   1.0000
     1.0000   1.0000   1.0000   1.0000   1.0000   1.0000   1.0000   1.0000
     1.0000   1.0000   1.0000   1.0000   1.0000   1.0000   1.0000   1.0000
     1.0000   1.0000   1.0000   1.0000   1.0000   1.0000   1.0000   1.0000
     1.0000   1.0000   1.0000   1.0000   1.0000   1.0000   1.0000   1.0000
     1.0000   1.0000   1.0000   1.0000   1.0000   1.0000   1.0000   1.0000
     1.0000   1.0000   1.0000   1.0000   1.0000   1.0000   1.0000   1.0000
     1.0000   1.0000   1.0000   1.0000   1.0000   1.0000   1.0000   1.0000
     1.0000   1.0000   1.0000   1.0000   1.0000   1.0000   1.0000   1.0000
     1.0000   1.0000   1.0000   1.0000   1.0000   1.0000   1.0000   1.0000
     1.0000   1.0000   1.0000   1.0000   1.0000   1.0000   1.0000   1.0000
     1.0000   1.0000   1.0000   1.0000   1.0000   1.0000   1.0000   1.0000
     1.0000   1.0000   1.0000   1.0000   1.0000   1.0000   1.0000   1.0000
     1.0000   1.0000   1.0000   1.0000   1.0000   1.0000   1.0000   1.0000
     1.0000   1.0000   1.0000   1.0000   1.0000   1.0000   1.0000   1.0000
     1.0000   1.0000   1.0000   1.0000   1.0000   1.0000   1.0000   1.0000
     1.0000   1.0000   1.0000   1.0000   1.0000   1.0000   1.0000   1.0000
     1.0000   1.0000   1.0000   1.0000   1.0000   1.0000   1.0000   1.0000
     1.0000   1.0000   1.0000   1.0000   1.0000   1.0000   1.0000   1.0000
     1.0000   1.0000   1.0000   1.0000   1.0000   1.0000   1.0000   1.0000
     1.0000   1.0000   1.0000   1.0000   1.0000   1.0000   1.0000   1.0000
     1.0000   1.0000   1.0000   1.0000   0.0000   0.0000   0.0000   0.0000
     0.0000   0.0000   0.0000   0.0000   0.0000   0.0000   0.0000   0.0000
     0.0000   0.0000   0.0000   0.0000   0.0000   0.0000   0.0000   0.0000
     0.0000   0.0000   0.0000   0.0000   0.0000   0.0000   0.0000   0.0000
     0.0000   0.0000   0.0000   0.0000   0.0000   0.0000   0.0000   0.0000
     0.0000   0.0000   0.0000   0.0000   0.0000   0.0000   0.0000   0.0000
     0.0000   0.0000   0.0000   0.0000   0.0000   0.0000   0.0000   0.0000
     0.0000   0.0000   0.0000   0.0000   0.0000   0.0000   0.0000   0.0000
     0.0000   0.0000   0.0000   0.0000   0.0000   0.0000   0.0000   0.0000
     0.0000   0.0000   0.0000   0.0000   0.0000   0.0000   0.0000   0.0000
     0.0000   0.0000   0.0000   0.0000   0.0000   0.0000   0.0000   0.0000
     0.0000   0.0000

     the Fermi energy is     9.2288 ev

!    total energy              =  -15079.82035694 Ry
     Harris-Foulkes estimate   =  -15079.82035694 Ry
     estimated scf accuracy    <          4.1E-09 Ry

     The total energy is the sum of the following terms:

     one-electron contribution =  -12488.14543379 Ry
     hartree contribution      =    6565.41404245 Ry
     xc contribution           =   -1565.67426848 Ry
     ewald contribution        =   -7591.41469713 Ry
     smearing contrib. (-TS)   =      -0.00000000 Ry

     convergence has been achieved in  12 iterations

     Writing output data file ZnO.save/

     General routines

     Parallel routines

   This run was terminated on:   1:37:39  15Jul2022

   JOB DONE.