     Program PWSCF v.6.4.1 starts on  8Nov2021 at 21:53: 3

     K-points division:     npool     =       8
     R & G space division:  proc/nbgrp/npool/nimage =      16
     Waiting for input...
     Reading input from standard input
Warning: card &IONS ignored
Warning: card   UPSCALE           = 100.D0, ignored
Warning: card / ignored
Warning: card &CELL ignored
Warning: card   CELL_DYNAMICS     = 'BFGS' ignored
Warning: card   PRESS_CONV_THR    = 0.5D0 ignored
Warning: card   CELL_DOFREE = 'ALL' ignored
Warning: card / ignored

     Current dimensions of program PWSCF are:
     Max number of different atomic species (ntypx) = 10
     Max number of k-points (npk) =  40000
     Max angular momentum in pseudopotentials (lmaxx) =  3

     bravais-lattice index     =            0
     lattice parameter (alat)  =      19.4735  a.u.
     unit-cell volume          =    5482.1528 (a.u.)^3
     number of atoms/cell      =           72
     number of atomic types    =            3
     number of electrons       =       876.00
     number of Kohn-Sham states=          526
     kinetic-energy cutoff     =      60.0000  Ry
     charge density cutoff     =     500.0000  Ry
     convergence threshold     =      1.0E-08
     mixing beta               =       0.5000
     number of iterations used =            8  plain     mixing
     Exchange-correlation      = SLA  PW   PSX  PSC ( 1  4 10  8 0 0)

     celldm(1)=  19.473450  celldm(2)=   0.000000  celldm(3)=   0.000000
     celldm(4)=   0.000000  celldm(5)=   0.000000  celldm(6)=   0.000000

     crystal axes: (cart. coord. in units of alat)
               a(1) = (   1.000000   0.000006   0.000001 )
               a(2) = (  -0.499994   0.865986  -0.000032 )
               a(3) = (  -0.000000  -0.000037   0.857255 )

     reciprocal axes: (cart. coord. in units 2 pi/alat)
               b(1) = (  0.999997  0.577367  0.000025 )
               b(2) = ( -0.000007  1.154750  0.000049 )
               b(3) = ( -0.000001  0.000043  1.166514 )

     PseudoPot. # 1 for Zn read from file:
     ./GBRV_PBEsol/zn_pbesol_v1.uspp.F.UPF
     MD5 check sum: 7d8615e52efe7c1e2b1899de8658bae2
     Pseudo is Ultrasoft, Zval = 20.0
     Generated by new atomic code, or converted to UPF format
     Using radial grid of  943 points,  6 beta functions with:
                l(1) =   0
                l(2) =   0
                l(3) =   1
                l(4) =   1
                l(5) =   2
                l(6) =   2
     Q(r) pseudized with  8 coefficients,  rinner =    1.100   1.100   1.100
                                                       1.100   1.100

     PseudoPot. # 2 for O  read from file:
     ./GBRV_PBEsol/o_pbesol_v1.2.uspp.F.UPF
     MD5 check sum: 501638753501ef6325af9037351f7734
     Pseudo is Ultrasoft + core correction, Zval =  6.0
     Generated by new atomic code, or converted to UPF format
     Using radial grid of  737 points,  5 beta functions with:
                l(1) =   0
                l(2) =   0
                l(3) =   1
                l(4) =   1
                l(5) =   2
     Q(r) pseudized with  8 coefficients,  rinner =    0.900   0.900   0.900
                                                       0.900   0.900

     PseudoPot. # 3 for Mg read from file:
     ./GBRV_PBEsol/mg_pbesol_v1.4.uspp.F.UPF
     MD5 check sum: 4059f37963cf5867752dbf5ab2400678
     Pseudo is Ultrasoft, Zval = 10.0
     Generated by new atomic code, or converted to UPF format
     Using radial grid of  821 points,  7 beta functions with:
                l(1) =   0
                l(2) =   0
                l(3) =   0
                l(4) =   1
                l(5) =   1
                l(6) =   2
                l(7) =   2
     Q(r) pseudized with  8 coefficients,  rinner =    1.200   1.200   1.200
                                                       1.200   1.200

     atomic species   valence    mass     pseudopotential
        Zn            20.00    65.38000     Zn( 1.00)
        O              6.00    15.99900     O ( 1.00)
        Mg            10.00    24.30500     Mg( 1.00)

     No symmetry found

                                    s                        frac. trans.

      isym =  1     identity

 cryst.   s( 1) = (     1          0          0      )
                  (     0          1          0      )
                  (     0          0          1      )

 cart.    s( 1) = (  1.0000000  0.0000000 -0.0000000 )
                  (  0.0000000  1.0000000 -0.0000000 )
                  ( -0.0000000 -0.0000000  1.0000000 )

   Cartesian axes

     site n.     atom                  positions (alat units)
         1           Mg  tau(   1) = (   0.0001651   0.7698905   0.4327582  )
         2           Mg  tau(   2) = (   0.4996864   0.6724450   0.6440402  )
         3           Mg  tau(   3) = (   0.8329849   0.0963274   0.6459970  )
         4           Mg  tau(   4) = (   0.0008491   0.3849423   0.6473828  )
         5           Mg  tau(   5) = (   0.3326658   0.7685989   0.0032700  )
         6           Mg  tau(   6) = (  -0.3322964   0.7697073   0.0033643  )
         7           O   tau(   7) = (   0.5003574   0.6741647   0.0008700  )
         8           O   tau(   8) = (   0.8332357   0.0957931   0.0013447  )
         9           O   tau(   9) = (   0.0000999   0.3848274   0.0019469  )
        10           O   tau(  10) = (   0.4996328   0.0955171   0.0025102  )
        11           O   tau(  11) = (  -0.1660521   0.6735075   0.0028772  )
        12           O   tau(  12) = (   0.1664333   0.0963368   0.0029549  )
        13           O   tau(  13) = (   0.1660578   0.6733433   0.0030737  )
        14           O   tau(  14) = (   0.6667537   0.3852545   0.0032843  )
        15           O   tau(  15) = (   0.3335156   0.3851677   0.0033788  )
        16           O   tau(  16) = (   0.3335131   0.7698376   0.2148699  )
        17           O   tau(  17) = (  -0.3332116   0.7696882   0.2154121  )
        18           O   tau(  18) = (   0.6665404   0.1923271   0.2170139  )
        19           O   tau(  19) = (  -0.0004246   0.1926286   0.2170972  )
        20           O   tau(  20) = (   0.5001028   0.4812382   0.2171115  )
        21           O   tau(  21) = (   0.1665463   0.4807999   0.2173530  )
        22           O   tau(  22) = (  -0.1663655   0.4808295   0.2173731  )
        23           O   tau(  23) = (   0.3333336   0.1924484   0.2176205  )
        24           O   tau(  24) = (   0.0000680   0.7698835   0.2192474  )
        25           O   tau(  25) = (  -0.1668867   0.6736684   0.4311689  )
        26           O   tau(  26) = (   0.1666993   0.0957459   0.4311976  )
        27           O   tau(  27) = (   0.1672263   0.6737738   0.4311873  )
        28           O   tau(  28) = (   0.5000549   0.6735798   0.4316915  )
        29           O   tau(  29) = (   0.6666554   0.3848133   0.4317466  )
        30           O   tau(  30) = (   0.4998199   0.0963030   0.4317639  )
        31           O   tau(  31) = (   0.3335140   0.3847963   0.4319216  )
        32           O   tau(  32) = (   0.8327499   0.0958588   0.4320721  )
        33           O   tau(  33) = (   0.0002237   0.3853420   0.4327723  )
        34           O   tau(  34) = (   0.0003772   0.7695235   0.6440364  )
        35           O   tau(  35) = (  -0.0004120   0.1925547   0.6446409  )
        36           O   tau(  36) = (  -0.1667572   0.4807950   0.6455231  )
        37           O   tau(  37) = (   0.6665343   0.1926443   0.6458597  )
        38           O   tau(  38) = (   0.4999698   0.4807639   0.6458959  )
        39           O   tau(  39) = (   0.1672798   0.4812747   0.6459824  )
        40           O   tau(  40) = (   0.3326447   0.1925302   0.6462282  )
        41           O   tau(  41) = (  -0.3338505   0.7695767   0.6473007  )
        42           O   tau(  42) = (   0.3341392   0.7700859   0.6473689  )
        43           Zn  tau(  43) = (   0.5002024   0.6732371   0.2148735  )
        44           Zn  tau(  44) = (   0.8331669   0.0968194   0.2154375  )
        45           Zn  tau(  45) = (  -0.0000198   0.3848003   0.2170064  )
        46           Zn  tau(  46) = (   0.4998210   0.0962383   0.2171011  )
        47           Zn  tau(  47) = (  -0.1660493   0.6730294   0.2171040  )
        48           Zn  tau(  48) = (   0.1662351   0.6731792   0.2173459  )
        49           Zn  tau(  49) = (   0.1664224   0.0968798   0.2173874  )
        50           Zn  tau(  50) = (   0.6669632   0.3848283   0.2176137  )
        51           Zn  tau(  51) = (   0.3333738   0.3847662   0.2192617  )
        52           Zn  tau(  52) = (   0.3331973   0.7694102   0.4311657  )
        53           Zn  tau(  53) = (  -0.3329344   0.7694263   0.4311726  )
        54           Zn  tau(  54) = (   0.5003316   0.4805398   0.4311946  )
        55           Zn  tau(  55) = (  -0.0001065   0.1924743   0.4317088  )
        56           Zn  tau(  56) = (   0.6655944   0.1927748   0.4317537  )
        57           Zn  tau(  57) = (   0.1673278   0.4816560   0.4317495  )
        58           Zn  tau(  58) = (  -0.1672691   0.4813233   0.4319178  )
        59           Zn  tau(  59) = (   0.3337187   0.1922992   0.4320682  )
        60           Zn  tau(  60) = (  -0.1675560   0.6732636   0.6446232  )
        61           Zn  tau(  61) = (   0.1686646   0.6732673   0.6455162  )
        62           Zn  tau(  62) = (   0.4997288   0.0974279   0.6458631  )
        63           Zn  tau(  63) = (   0.1659065   0.0962993   0.6459099  )
        64           Zn  tau(  64) = (   0.3338984   0.3850955   0.6462211  )
        65           Zn  tau(  65) = (   0.6657911   0.3848309   0.6473155  )
        66           Zn  tau(  66) = (   0.0000228   0.7685350   0.0008663  )
        67           Zn  tau(  67) = (   0.0002351   0.1922533   0.0013406  )
        68           Zn  tau(  68) = (  -0.1665356   0.4818311   0.0019432  )
        69           Zn  tau(  69) = (   0.6663795   0.1927640   0.0025067  )
        70           Zn  tau(  70) = (   0.1670419   0.4815084   0.0028845  )
        71           Zn  tau(  71) = (   0.4998605   0.4818960   0.0029409  )
        72           Zn  tau(  72) = (   0.3326339   0.1929097   0.0030915  )

   Crystallographic axes

     site n.     atom                  positions (cryst. coord.)
         1           Mg  tau(   1) = (  0.4446856  0.8890520  0.5048513  )
         2           Mg  tau(   2) = (  0.8879487  0.7765339  0.7513101  )
         3           Mg  tau(   3) = (  0.8886147  0.1112604  0.7535677  )
         4           Mg  tau(   4) = (  0.2231184  0.4445438  0.7551974  )
         5           Mg  tau(   5) = (  0.7764287  0.8875373  0.0038471  )
         6           Mg  tau(   6) = (  0.1121087  0.8888215  0.0039577  )
         7           O   tau(   7) = (  0.8895965  0.7784882  0.0010434  )
         8           O   tau(   8) = (  0.8885408  0.1106116  0.0015721  )
         9           O   tau(   9) = (  0.2222867  0.4443794  0.0022876  )
        10           O   tau(  10) = (  0.5547797  0.1102952  0.0029319  )
        11           O   tau(  11) = (  0.2228097  0.7777337  0.0033853  )
[...]
     atom   36 type  2   force =     0.00123233   -0.00076444   -0.00007058
     atom   37 type  2   force =     0.00126355   -0.00072861   -0.00005978
     atom   38 type  2   force =    -0.00000414    0.00145537    0.00003236
     atom   39 type  2   force =    -0.00125018   -0.00075129   -0.00001144
     atom   40 type  2   force =    -0.00004334   -0.00000175    0.00004088
     atom   41 type  2   force =    -0.00132970   -0.00071547    0.00012321
     atom   42 type  2   force =     0.00134449    0.00079512    0.00010729
     atom   43 type  1   force =     0.00000000    0.00000000    0.00000000
     atom   44 type  1   force =     0.00000000    0.00000000    0.00000000
     atom   45 type  1   force =     0.00000000    0.00000000    0.00000000
     atom   46 type  1   force =     0.00000000    0.00000000    0.00000000
     atom   47 type  1   force =     0.00000000    0.00000000    0.00000000
     atom   48 type  1   force =     0.00000000    0.00000000    0.00000000
     atom   49 type  1   force =     0.00000000    0.00000000    0.00000000
     atom   50 type  1   force =     0.00000000    0.00000000    0.00000000
     atom   51 type  1   force =     0.00000000    0.00000000    0.00000000
     atom   52 type  1   force =     0.00000000    0.00000000    0.00000000
     atom   53 type  1   force =     0.00000000    0.00000000    0.00000000
     atom   54 type  1   force =     0.00000000    0.00000000    0.00000000
     atom   55 type  1   force =     0.00000000    0.00000000    0.00000000
     atom   56 type  1   force =     0.00000000    0.00000000    0.00000000
     atom   57 type  1   force =     0.00000000    0.00000000    0.00000000
     atom   58 type  1   force =     0.00000000    0.00000000    0.00000000
     atom   59 type  1   force =     0.00000000    0.00000000    0.00000000
     atom   60 type  1   force =     0.00000000    0.00000000    0.00000000
     atom   61 type  1   force =     0.00000000    0.00000000    0.00000000
     atom   62 type  1   force =     0.00000000    0.00000000    0.00000000
     atom   63 type  1   force =     0.00000000    0.00000000    0.00000000
     atom   64 type  1   force =     0.00000000    0.00000000    0.00000000
     atom   65 type  1   force =     0.00000000    0.00000000    0.00000000
     atom   66 type  1   force =     0.00000000    0.00000000    0.00000000
     atom   67 type  1   force =     0.00000000    0.00000000    0.00000000
     atom   68 type  1   force =     0.00000000    0.00000000    0.00000000
     atom   69 type  1   force =     0.00000000    0.00000000    0.00000000
     atom   70 type  1   force =     0.00000000    0.00000000    0.00000000
     atom   71 type  1   force =     0.00000000    0.00000000    0.00000000
     atom   72 type  1   force =     0.00000000    0.00000000    0.00000000
     The Hubbard contrib.    to forces
     atom    1 type  3   force =     0.00000000    0.00000000    0.00000000
     atom    2 type  3   force =     0.00000000    0.00000000    0.00000000
     atom    3 type  3   force =     0.00000000    0.00000000    0.00000000
     atom    4 type  3   force =     0.00000000    0.00000000    0.00000000
     atom    5 type  3   force =     0.00000000    0.00000000    0.00000000
     atom    6 type  3   force =     0.00000000    0.00000000    0.00000000
     atom    7 type  2   force =     0.00000000    0.00000000    0.00000000
     atom    8 type  2   force =     0.00000000    0.00000000    0.00000000
     atom    9 type  2   force =     0.00000000    0.00000000    0.00000000
     atom   10 type  2   force =     0.00000000    0.00000000    0.00000000
     atom   11 type  2   force =     0.00000000    0.00000000    0.00000000
     atom   12 type  2   force =     0.00000000    0.00000000    0.00000000
     atom   13 type  2   force =     0.00000000    0.00000000    0.00000000
     atom   14 type  2   force =     0.00000000    0.00000000    0.00000000
     atom   15 type  2   force =     0.00000000    0.00000000    0.00000000
     atom   16 type  2   force =     0.00000000    0.00000000    0.00000000
     atom   17 type  2   force =     0.00000000    0.00000000    0.00000000
     atom   18 type  2   force =     0.00000000    0.00000000    0.00000000
     atom   19 type  2   force =     0.00000000    0.00000000    0.00000000
     atom   20 type  2   force =     0.00000000    0.00000000    0.00000000
     atom   21 type  2   force =     0.00000000    0.00000000    0.00000000
     atom   22 type  2   force =     0.00000000    0.00000000    0.00000000
     atom   23 type  2   force =     0.00000000    0.00000000    0.00000000
     atom   24 type  2   force =     0.00000000    0.00000000    0.00000000
     atom   25 type  2   force =     0.00000000    0.00000000    0.00000000
     atom   26 type  2   force =     0.00000000    0.00000000    0.00000000
     atom   27 type  2   force =     0.00000000    0.00000000    0.00000000
     atom   28 type  2   force =     0.00000000    0.00000000    0.00000000
     atom   29 type  2   force =     0.00000000    0.00000000    0.00000000
     atom   30 type  2   force =     0.00000000    0.00000000    0.00000000
     atom   31 type  2   force =     0.00000000    0.00000000    0.00000000
     atom   32 type  2   force =     0.00000000    0.00000000    0.00000000
     atom   33 type  2   force =     0.00000000    0.00000000    0.00000000
     atom   34 type  2   force =     0.00000000    0.00000000    0.00000000
     atom   35 type  2   force =     0.00000000    0.00000000    0.00000000
     atom   36 type  2   force =     0.00000000    0.00000000    0.00000000
     atom   37 type  2   force =     0.00000000    0.00000000    0.00000000
     atom   38 type  2   force =     0.00000000    0.00000000    0.00000000
     atom   39 type  2   force =     0.00000000    0.00000000    0.00000000
     atom   40 type  2   force =     0.00000000    0.00000000    0.00000000
     atom   41 type  2   force =     0.00000000    0.00000000    0.00000000
     atom   42 type  2   force =     0.00000000    0.00000000    0.00000000
     atom   43 type  1   force =     0.00000000    0.00000000    0.00000000
     atom   44 type  1   force =     0.00000000    0.00000000    0.00000000
     atom   45 type  1   force =     0.00000000    0.00000000    0.00000000
     atom   46 type  1   force =     0.00000000    0.00000000    0.00000000
     atom   47 type  1   force =     0.00000000    0.00000000    0.00000000
     atom   48 type  1   force =     0.00000000    0.00000000    0.00000000
     atom   49 type  1   force =     0.00000000    0.00000000    0.00000000
     atom   50 type  1   force =     0.00000000    0.00000000    0.00000000
     atom   51 type  1   force =     0.00000000    0.00000000    0.00000000
     atom   52 type  1   force =     0.00000000    0.00000000    0.00000000
     atom   53 type  1   force =     0.00000000    0.00000000    0.00000000
     atom   54 type  1   force =     0.00000000    0.00000000    0.00000000
     atom   55 type  1   force =     0.00000000    0.00000000    0.00000000
     atom   56 type  1   force =     0.00000000    0.00000000    0.00000000
     atom   57 type  1   force =     0.00000000    0.00000000    0.00000000
     atom   58 type  1   force =     0.00000000    0.00000000    0.00000000
     atom   59 type  1   force =     0.00000000    0.00000000    0.00000000
     atom   60 type  1   force =     0.00000000    0.00000000    0.00000000
     atom   61 type  1   force =     0.00000000    0.00000000    0.00000000
     atom   62 type  1   force =     0.00000000    0.00000000    0.00000000
     atom   63 type  1   force =     0.00000000    0.00000000    0.00000000
     atom   64 type  1   force =     0.00000000    0.00000000    0.00000000
     atom   65 type  1   force =     0.00000000    0.00000000    0.00000000
     atom   66 type  1   force =     0.00000000    0.00000000    0.00000000
     atom   67 type  1   force =     0.00000000    0.00000000    0.00000000
     atom   68 type  1   force =     0.00000000    0.00000000    0.00000000
     atom   69 type  1   force =     0.00000000    0.00000000    0.00000000
     atom   70 type  1   force =     0.00000000    0.00000000    0.00000000
     atom   71 type  1   force =     0.00000000    0.00000000    0.00000000
     atom   72 type  1   force =     0.00000000    0.00000000    0.00000000
     The SCF correction term to forces
     atom    1 type  3   force =    -0.00000673    0.00001825    0.00000000
     atom    2 type  3   force =     0.00002801    0.00002218    0.00000000
     atom    3 type  3   force =    -0.00000443    0.00000581    0.00000000
     atom    4 type  3   force =    -0.00002072    0.00001297    0.00000000
     atom    5 type  3   force =     0.00000546    0.00004642    0.00000000
     atom    6 type  3   force =    -0.00000906    0.00002448    0.00000000
     atom    7 type  2   force =    -0.00000235    0.00001056    0.00000000
     atom    8 type  2   force =    -0.00000689   -0.00001230    0.00000000
     atom    9 type  2   force =    -0.00000107    0.00000243    0.00000000
     atom   10 type  2   force =     0.00000182   -0.00001200    0.00000000
     atom   11 type  2   force =     0.00000653    0.00001019    0.00000000
     atom   12 type  2   force =     0.00000459   -0.00001033    0.00000000
     atom   13 type  2   force =    -0.00000343    0.00001371    0.00000000
     atom   14 type  2   force =    -0.00000211   -0.00000249    0.00000000
     atom   15 type  2   force =     0.00000317   -0.00000081    0.00000000
     atom   16 type  2   force =    -0.00000359    0.00000415    0.00000000
     atom   17 type  2   force =     0.00000186   -0.00000012    0.00000000
     atom   18 type  2   force =     0.00000308   -0.00000559    0.00000000
     atom   19 type  2   force =    -0.00000440    0.00000137    0.00000000
     atom   20 type  2   force =     0.00000043    0.00000190    0.00000000
     atom   21 type  2   force =    -0.00000428    0.00000186    0.00000000
     atom   22 type  2   force =     0.00000365   -0.00000062    0.00000000
     atom   23 type  2   force =     0.00000191   -0.00000472    0.00000000
     atom   24 type  2   force =     0.00000148    0.00000175    0.00000000
     atom   25 type  2   force =    -0.00000012    0.00001256    0.00000000
     atom   26 type  2   force =     0.00001022   -0.00000669    0.00000000
     atom   27 type  2   force =    -0.00000497    0.00001028    0.00000000
     atom   28 type  2   force =     0.00000377    0.00000411    0.00000000
     atom   29 type  2   force =    -0.00000401   -0.00000051    0.00000000
     atom   30 type  2   force =    -0.00000496   -0.00000668    0.00000000
     atom   31 type  2   force =     0.00000332   -0.00000557    0.00000000
     atom   32 type  2   force =    -0.00000381   -0.00000507    0.00000000
     atom   33 type  2   force =    -0.00000005   -0.00000028    0.00000000
     atom   34 type  2   force =    -0.00000345    0.00000677    0.00000000
     atom   35 type  2   force =    -0.00000365   -0.00000247    0.00000000
     atom   36 type  2   force =    -0.00000032    0.00000042    0.00000000
     atom   37 type  2   force =    -0.00000215   -0.00000338    0.00000000
     atom   38 type  2   force =     0.00000380   -0.00000340    0.00000000
     atom   39 type  2   force =    -0.00000092    0.00000104    0.00000000
     atom   40 type  2   force =     0.00000390   -0.00000694    0.00000000
     atom   41 type  2   force =     0.00000379    0.00000097    0.00000000
     atom   42 type  2   force =    -0.00000106    0.00000556    0.00000000
     atom   43 type  1   force =    -0.00001189    0.00002199    0.00000000
     atom   44 type  1   force =    -0.00003059   -0.00004464    0.00000000
     atom   45 type  1   force =    -0.00002033    0.00003185    0.00000000
     atom   46 type  1   force =     0.00001380   -0.00006689    0.00000000
     atom   47 type  1   force =     0.00003165    0.00002216    0.00000000
     atom   48 type  1   force =    -0.00001988    0.00005236    0.00000000
     atom   49 type  1   force =     0.00001379   -0.00003924    0.00000000
     atom   50 type  1   force =     0.00001919    0.00000828    0.00000000
     atom   51 type  1   force =     0.00000390    0.00001596    0.00000000
     atom   52 type  1   force =    -0.00000283    0.00005503    0.00000000
     atom   53 type  1   force =     0.00002127    0.00007669    0.00000000
     atom   54 type  1   force =     0.00000194   -0.00000830    0.00000000
     atom   55 type  1   force =     0.00002017   -0.00002226    0.00000000
     atom   56 type  1   force =     0.00001043   -0.00004320    0.00000000
     atom   57 type  1   force =    -0.00002725   -0.00002503    0.00000000
     atom   58 type  1   force =     0.00002825   -0.00000851    0.00000000
     atom   59 type  1   force =    -0.00003739   -0.00006392    0.00000000
     atom   60 type  1   force =     0.00002954    0.00003159    0.00000000
     atom   61 type  1   force =    -0.00006764    0.00004335    0.00000000
     atom   62 type  1   force =     0.00000336   -0.00008253    0.00000000
     atom   63 type  1   force =    -0.00000275   -0.00005379    0.00000000
     atom   64 type  1   force =    -0.00001321   -0.00000659    0.00000000
     atom   65 type  1   force =     0.00004073    0.00000091    0.00000000
     atom   66 type  1   force =     0.00000511    0.00007657    0.00000000
     atom   67 type  1   force =    -0.00003100   -0.00006140    0.00000000
     atom   68 type  1   force =    -0.00000132   -0.00000722    0.00000000
     atom   69 type  1   force =     0.00000838   -0.00007180    0.00000000
     atom   70 type  1   force =     0.00000139   -0.00000024    0.00000000
     atom   71 type  1   force =     0.00000145    0.00000105    0.00000000
     atom   72 type  1   force =     0.00002358   -0.00005590    0.00000000

     Total force =     0.000154     Total SCF correction =     0.000289
     SCF correction compared to forces is large: reduce conv_thr to get better values

     Computing stress (Cartesian axis) and pressure

          total   stress  (Ry/bohr**3)                   (kbar)     P=    1.67
   0.00001242   0.00000000   0.00000001          1.83      0.00      0.00
   0.00000000   0.00001244  -0.00000001          0.00      1.83     -0.00
   0.00000001  -0.00000001   0.00000918          0.00     -0.00      1.35

     kinetic stress (kbar)  32820.52     -0.12     -0.03
                               -0.12  32820.48      0.12
                               -0.03      0.12  33073.44

     local   stress (kbar)   -671.14    -25.94   -413.84
                              -25.94    669.60    315.43
                             -413.84    315.43 -21163.36

     nonloc. stress (kbar)   -555.87      0.06      0.01
                                0.06   -555.84     -0.08
                                0.01     -0.08   -640.96

     hartree stress (kbar)  57646.82     12.35    202.83
                               12.35  56983.86   -155.16
                              202.83   -155.16  67364.91

     exc-cor stress (kbar) -13532.94      0.00      0.00
                                0.00 -13532.94     -0.00
                                0.00     -0.00 -13534.50

     corecor stress (kbar)   -260.74      0.00      0.00
                                0.00   -260.74     -0.00
                                0.00     -0.00   -261.18

     ewald   stress (kbar) -75444.82     13.65    211.03
                               13.65 -76122.59   -160.31
                              211.03   -160.31 -64837.00

     hubbard stress (kbar)      0.00      0.00      0.00
                                0.00      0.00      0.00
                                0.00      0.00      0.00

     london  stress (kbar)      0.00      0.00      0.00
                                0.00      0.00      0.00
                                0.00      0.00      0.00

     DFT-D3  stress (kbar)      0.00      0.00      0.00
                                0.00      0.00      0.00
                                0.00      0.00      0.00

     XDM     stress (kbar)      0.00      0.00      0.00
                                0.00      0.00      0.00
                                0.00      0.00      0.00

     dft-nl  stress (kbar)      0.00      0.00      0.00
                                0.00      0.00      0.00
                                0.00      0.00      0.00

     TS-vdW  stress (kbar)      0.00      0.00      0.00
                                0.00      0.00      0.00
                                0.00      0.00      0.00

     Writing output data file ZnO.save/

     General routines

     Parallel routines

   This run was terminated on:  22: 9: 2   8Nov2021

   JOB DONE.