     Program PWSCF v.6.4.1 starts on 16Jun2022 at 19:55:44

     K-points division:     npool     =       4
     R & G space division:  proc/nbgrp/npool/nimage =      16
     Waiting for input...
     Reading input from standard input

     Current dimensions of program PWSCF are:
     Max number of different atomic species (ntypx) = 10
     Max number of k-points (npk) =  40000
     Max angular momentum in pseudopotentials (lmaxx) =  3

NOTICE: Bravais lattice has wrong number ( 5) of symmetries - symmetries are disabled

     bravais-lattice index     =            0
     lattice parameter (alat)  =       6.1934  a.u.
     unit-cell volume          =     319.3980 (a.u.)^3
     number of atoms/cell      =            4
     number of atomic types    =            3
     number of electrons       =        42.00
     number of Kohn-Sham states=           21
     kinetic-energy cutoff     =      80.0000  Ry
     charge density cutoff     =     600.0000  Ry
     convergence threshold     =      1.0E-06
     mixing beta               =       0.5000
     number of iterations used =            8  plain     mixing
     Exchange-correlation      = SLA  PW   PSX  PSC ( 1  4 10  8 0 0)
     nstep                     =          200

     celldm(1)=   6.193420  celldm(2)=   0.000000  celldm(3)=   0.000000
     celldm(4)=   0.000000  celldm(5)=   0.000000  celldm(6)=   0.000000

     crystal axes: (cart. coord. in units of alat)
               a(1) = (   1.000000   0.000000   0.000000 )
               a(2) = (  -0.500000   0.866025   0.000000 )
               a(3) = (   0.000001   0.000000   1.552422 )

     reciprocal axes: (cart. coord. in units 2 pi/alat)
               b(1) = (  1.000000  0.577350 -0.000001 )
               b(2) = ( -0.000000  1.154700 -0.000000 )
               b(3) = ( -0.000000 -0.000000  0.644155 )

     PseudoPot. # 1 for Mg read from file:
     ./GBRV_PBEsol/mg_pbesol_v1.4.uspp.F.UPF
     MD5 check sum: 4059f37963cf5867752dbf5ab2400678
     Pseudo is Ultrasoft, Zval = 10.0
     Generated by new atomic code, or converted to UPF format
     Using radial grid of  821 points,  7 beta functions with:
                l(1) =   0
                l(2) =   0
                l(3) =   0
                l(4) =   1
                l(5) =   1
                l(6) =   2
                l(7) =   2
     Q(r) pseudized with  8 coefficients,  rinner =    1.200   1.200   1.200
                                                       1.200   1.200

     PseudoPot. # 2 for Zn read from file:
     ./GBRV_PBEsol/zn_pbesol_v1.uspp.F.UPF
     MD5 check sum: 7d8615e52efe7c1e2b1899de8658bae2
     Pseudo is Ultrasoft, Zval = 20.0
     Generated by new atomic code, or converted to UPF format
     Using radial grid of  943 points,  6 beta functions with:
                l(1) =   0
                l(2) =   0
                l(3) =   1
                l(4) =   1
                l(5) =   2
                l(6) =   2
     Q(r) pseudized with  8 coefficients,  rinner =    1.100   1.100   1.100
                                                       1.100   1.100

     PseudoPot. # 3 for O  read from file:
     ./GBRV_PBEsol/o_pbesol_v1.2.uspp.F.UPF
     MD5 check sum: 501638753501ef6325af9037351f7734
     Pseudo is Ultrasoft + core correction, Zval =  6.0
     Generated by new atomic code, or converted to UPF format
     Using radial grid of  737 points,  5 beta functions with:
                l(1) =   0
                l(2) =   0
                l(3) =   1
                l(4) =   1
                l(5) =   2
     Q(r) pseudized with  8 coefficients,  rinner =    0.900   0.900   0.900
                                                       0.900   0.900

     atomic species   valence    mass     pseudopotential
        Mg            10.00    24.30500     Mg( 1.00)
        Zn            20.00    65.38000     Zn( 1.00)
        O              6.00    15.99900     O ( 1.00)

     No symmetry found

                                    s                        frac. trans.

      isym =  1     identity

 cryst.   s( 1) = (     1          0          0      )
                  (     0          1          0      )
                  (     0          0          1      )

 cart.    s( 1) = (  1.0000000  0.0000000 -0.0000000 )
                  ( -0.0000000  1.0000000 -0.0000000 )
                  ( -0.0000000 -0.0000000  1.0000000 )

   Cartesian axes

     site n.     atom                  positions (alat units)
         1           O   tau(   1) = (   0.5000002   0.2886757   0.0114041  )
         2           O   tau(   2) = (   0.0000005   0.5773498   0.7876149  )
         3           Zn  tau(   3) = (   0.5000004   0.2886753   0.9531780  )
         4           Mg  tau(   4) = (   0.0000006   0.5773518   1.7344881  )

   Crystallographic axes

     site n.     atom                  positions (cryst. coord.)
         1           O   tau(   1) = (  0.6666670  0.3333337  0.0073459  )
         2           O   tau(   2) = (  0.3333329  0.6666657  0.5073458  )
         3           Zn  tau(   3) = (  0.6666664  0.3333329  0.6139939  )
         4           Mg  tau(   4) = (  0.3333336  0.6666677  1.1172785  )

     number of k points=   260
                       cart. coord. in units 2pi/alat
        k(    1) = (   0.0000000   0.0000000   0.0000000), wk =   0.0039062
        k(    2) = (  -0.0000000  -0.0000000   0.0805193), wk =   0.0078125
        k(    3) = (  -0.0000001  -0.0000000   0.1610387), wk =   0.0078125
        k(    4) = (  -0.0000001  -0.0000001   0.2415580), wk =   0.0078125
        k(    5) = (   0.0000001   0.0000001  -0.3220773), wk =   0.0039062
        k(    6) = (  -0.0000000   0.1443375  -0.0000000), wk =   0.0078125
        k(    7) = (  -0.0000001   0.1443375   0.0805193), wk =   0.0078125
        k(    8) = (  -0.0000001   0.1443375   0.1610386), wk =   0.0078125
        k(    9) = (  -0.0000001   0.1443375   0.2415580), wk =   0.0078125
        k(   10) = (   0.0000001   0.1443376  -0.3220774), wk =   0.0078125
        k(   11) = (   0.0000000   0.1443376  -0.2415581), wk =   0.0078125
        k(   12) = (   0.0000000   0.1443376  -0.1610387), wk =   0.0078125
        k(   13) = (  -0.0000000   0.1443376  -0.0805194), wk =   0.0078125
        k(   14) = (  -0.0000001   0.2886751  -0.0000001), wk =   0.0078125
        k(   15) = (  -0.0000001   0.2886750   0.0805192), wk =   0.0078125
        k(   16) = (  -0.0000001   0.2886750   0.1610386), wk =   0.0078125
        k(   17) = (  -0.0000002   0.2886750   0.2415579), wk =   0.0078125
        k(   18) = (   0.0000000   0.2886752  -0.3220774), wk =   0.0078125
        k(   19) = (  -0.0000000   0.2886751  -0.2415581), wk =   0.0078125
        k(   20) = (  -0.0000000   0.2886751  -0.1610388), wk =   0.0078125
        k(   21) = (  -0.0000001   0.2886751  -0.0805194), wk =   0.0078125
        k(   22) = (  -0.0000001   0.4330126  -0.0000001), wk =   0.0078125
        k(   23) = (  -0.0000002   0.4330126   0.0805192), wk =   0.0078125
        k(   24) = (  -0.0000002   0.4330126   0.1610385), wk =   0.0078125
        k(   25) = (  -0.0000002   0.4330125   0.2415579), wk =   0.0078125
        k(   26) = (  -0.0000000   0.4330127  -0.3220775), wk =   0.0078125
        k(   27) = (  -0.0000001   0.4330127  -0.2415581), wk =   0.0078125
        k(   28) = (  -0.0000001   0.4330127  -0.1610388), wk =   0.0078125
        k(   29) = (  -0.0000001   0.4330126  -0.0805195), wk =   0.0078125
        k(   30) = (   0.0000002  -0.5773501   0.0000002), wk =   0.0039062
        k(   31) = (   0.0000002  -0.5773502   0.0805195), wk =   0.0078125
        k(   32) = (   0.0000001  -0.5773502   0.1610389), wk =   0.0078125
        k(   33) = (   0.0000001  -0.5773502   0.2415582), wk =   0.0078125
        k(   34) = (   0.0000003  -0.5773500  -0.3220772), wk =   0.0039062
        k(   35) = (   0.1250000   0.0721687  -0.0000001), wk =   0.0078125
        k(   36) = (   0.1250000   0.0721687   0.0805193), wk =   0.0078125
        k(   37) = (   0.1249999   0.0721687   0.1610386), wk =   0.0078125
        k(   38) = (   0.1249999   0.0721687   0.2415579), wk =   0.0078125
        k(   39) = (   0.1250001   0.0721688  -0.3220774), wk =   0.0078125
        k(   40) = (   0.1250001   0.0721688  -0.2415581), wk =   0.0078125
        k(   41) = (   0.1250000   0.0721688  -0.1610387), wk =   0.0078125
        k(   42) = (   0.1250000   0.0721688  -0.0805194), wk =   0.0078125
        k(   43) = (   0.1249999   0.2165063  -0.0000001), wk =   0.0078125
        k(   44) = (   0.1249999   0.2165062   0.0805192), wk =   0.0078125
        k(   45) = (   0.1249999   0.2165062   0.1610386), wk =   0.0078125
        k(   46) = (   0.1249999   0.2165062   0.2415579), wk =   0.0078125
        k(   47) = (   0.1250000   0.2165064  -0.3220775), wk =   0.0078125
        k(   48) = (   0.1250000   0.2165063  -0.2415581), wk =   0.0078125
        k(   49) = (   0.1250000   0.2165063  -0.1610388), wk =   0.0078125
        k(   50) = (   0.1250000   0.2165063  -0.0805194), wk =   0.0078125
        k(   51) = (   0.1249999   0.3608438  -0.0000002), wk =   0.0078125
        k(   52) = (   0.1249999   0.3608438   0.0805192), wk =   0.0078125
        k(   53) = (   0.1249998   0.3608438   0.1610385), wk =   0.0078125
        k(   54) = (   0.1249998   0.3608437   0.2415579), wk =   0.0078125
        k(   55) = (   0.1250000   0.3608439  -0.3220775), wk =   0.0078125
        k(   56) = (   0.1250000   0.3608439  -0.2415582), wk =   0.0078125
        k(   57) = (   0.1249999   0.3608438  -0.1610388), wk =   0.0078125
        k(   58) = (   0.1249999   0.3608438  -0.0805195), wk =   0.0078125
        k(   59) = (   0.1249998   0.5051813  -0.0000002), wk =   0.0078125
        k(   60) = (   0.1249998   0.5051813   0.0805191), wk =   0.0078125
[...]
        k(  246) = (  -0.4999999   0.0000002  -0.1610385), wk =   0.0078125
        k(  247) = (  -0.5000000   0.0000002  -0.0805192), wk =   0.0078125
        k(  248) = (  -0.5000000   0.1443377   0.0000001), wk =   0.0078125
        k(  249) = (  -0.5000001   0.1443377   0.0805195), wk =   0.0078125
        k(  250) = (  -0.5000001   0.1443376   0.1610388), wk =   0.0078125
        k(  251) = (  -0.5000001   0.1443376   0.2415581), wk =   0.0078125
        k(  252) = (  -0.4999999   0.1443378  -0.3220772), wk =   0.0078125
        k(  253) = (  -0.5000000   0.1443378  -0.2415579), wk =   0.0078125
        k(  254) = (  -0.5000000   0.1443377  -0.1610385), wk =   0.0078125
        k(  255) = (  -0.5000000   0.1443377  -0.0805192), wk =   0.0078125
        k(  256) = (  -0.4999997  -0.8660251   0.0000004), wk =   0.0039062
        k(  257) = (  -0.4999997  -0.8660251   0.0805198), wk =   0.0078125
        k(  258) = (  -0.4999998  -0.8660251   0.1610391), wk =   0.0078125
        k(  259) = (  -0.4999998  -0.8660251   0.2415584), wk =   0.0078125
        k(  260) = (  -0.4999996  -0.8660250  -0.3220769), wk =   0.0039062

                       cryst. coord.
        k(    1) = (   0.0000000   0.0000000   0.0000000), wk =   0.0039062
        k(    2) = (  -0.0000000  -0.0000000   0.1250000), wk =   0.0078125
[...]
        k(   23) = (  -0.0000002   0.4330126   0.0805192), wk =   0.0078125
        k(   24) = (  -0.0000002   0.4330126   0.1610385), wk =   0.0078125
        k(   25) = (  -0.0000002   0.4330125   0.2415579), wk =   0.0078125
        k(   26) = (  -0.0000000   0.4330127  -0.3220775), wk =   0.0078125
        k(   27) = (  -0.0000001   0.4330127  -0.2415581), wk =   0.0078125
        k(   28) = (  -0.0000001   0.4330127  -0.1610388), wk =   0.0078125
        k(   29) = (  -0.0000001   0.4330126  -0.0805195), wk =   0.0078125
        k(   30) = (   0.0000002  -0.5773501   0.0000002), wk =   0.0039062
        k(   31) = (   0.0000002  -0.5773502   0.0805195), wk =   0.0078125
        k(   32) = (   0.0000001  -0.5773502   0.1610389), wk =   0.0078125
        k(   33) = (   0.0000001  -0.5773502   0.2415582), wk =   0.0078125
        k(   34) = (   0.0000003  -0.5773500  -0.3220772), wk =   0.0039062
        k(   35) = (   0.1250000   0.0721687  -0.0000001), wk =   0.0078125
        k(   36) = (   0.1250000   0.0721687   0.0805193), wk =   0.0078125
        k(   37) = (   0.1249999   0.0721687   0.1610386), wk =   0.0078125
        k(   38) = (   0.1249999   0.0721687   0.2415579), wk =   0.0078125
        k(   39) = (   0.1250001   0.0721688  -0.3220774), wk =   0.0078125
        k(   40) = (   0.1250001   0.0721688  -0.2415581), wk =   0.0078125
        k(   41) = (   0.1250000   0.0721688  -0.1610387), wk =   0.0078125
        k(   42) = (   0.1250000   0.0721688  -0.0805194), wk =   0.0078125
        k(   43) = (   0.1249999   0.2165063  -0.0000001), wk =   0.0078125
        k(   44) = (   0.1249999   0.2165062   0.0805192), wk =   0.0078125
        k(   45) = (   0.1249999   0.2165062   0.1610386), wk =   0.0078125
        k(   46) = (   0.1249999   0.2165062   0.2415579), wk =   0.0078125
        k(   47) = (   0.1250000   0.2165064  -0.3220775), wk =   0.0078125
        k(   48) = (   0.1250000   0.2165063  -0.2415581), wk =   0.0078125
        k(   49) = (   0.1250000   0.2165063  -0.1610388), wk =   0.0078125
        k(   50) = (   0.1250000   0.2165063  -0.0805194), wk =   0.0078125
        k(   51) = (   0.1249999   0.3608438  -0.0000002), wk =   0.0078125
        k(   52) = (   0.1249999   0.3608438   0.0805192), wk =   0.0078125
        k(   53) = (   0.1249998   0.3608438   0.1610385), wk =   0.0078125
        k(   54) = (   0.1249998   0.3608437   0.2415579), wk =   0.0078125
        k(   55) = (   0.1250000   0.3608439  -0.3220775), wk =   0.0078125
        k(   56) = (   0.1250000   0.3608439  -0.2415582), wk =   0.0078125
        k(   57) = (   0.1249999   0.3608438  -0.1610388), wk =   0.0078125
        k(   58) = (   0.1249999   0.3608438  -0.0805195), wk =   0.0078125
        k(   59) = (   0.1249998   0.5051813  -0.0000002), wk =   0.0078125
        k(   60) = (   0.1249998   0.5051813   0.0805191), wk =   0.0078125
[...]
        k(  246) = (  -0.4999999   0.0000002  -0.1610385), wk =   0.0078125
        k(  247) = (  -0.5000000   0.0000002  -0.0805192), wk =   0.0078125
        k(  248) = (  -0.5000000   0.1443377   0.0000001), wk =   0.0078125
        k(  249) = (  -0.5000001   0.1443377   0.0805195), wk =   0.0078125
        k(  250) = (  -0.5000001   0.1443376   0.1610388), wk =   0.0078125
        k(  251) = (  -0.5000001   0.1443376   0.2415581), wk =   0.0078125
        k(  252) = (  -0.4999999   0.1443378  -0.3220772), wk =   0.0078125
        k(  253) = (  -0.5000000   0.1443378  -0.2415579), wk =   0.0078125
        k(  254) = (  -0.5000000   0.1443377  -0.1610385), wk =   0.0078125
        k(  255) = (  -0.5000000   0.1443377  -0.0805192), wk =   0.0078125
        k(  256) = (  -0.4999997  -0.8660251   0.0000004), wk =   0.0039062
        k(  257) = (  -0.4999997  -0.8660251   0.0805198), wk =   0.0078125
        k(  258) = (  -0.4999998  -0.8660251   0.1610391), wk =   0.0078125
        k(  259) = (  -0.4999998  -0.8660251   0.2415584), wk =   0.0078125
        k(  260) = (  -0.4999996  -0.8660250  -0.3220769), wk =   0.0039062

                       cryst. coord.
        k(    1) = (   0.0000000   0.0000000   0.0000000), wk =   0.0039062
        k(    2) = (  -0.0000000  -0.0000000   0.1250000), wk =   0.0078125
        k(    3) = (  -0.0000000  -0.0000000   0.2500000), wk =   0.0078125
        k(    4) = (  -0.0000000  -0.0000000   0.3750000), wk =   0.0078125
        k(    5) = (   0.0000000   0.0000000  -0.5000000), wk =   0.0039062
        k(    6) = (  -0.0000000   0.1250000  -0.0000000), wk =   0.0078125
        k(    7) = (  -0.0000000   0.1250000   0.1250000), wk =   0.0078125
        k(    8) = (  -0.0000000   0.1250000   0.2500000), wk =   0.0078125
        k(    9) = (  -0.0000000   0.1250000   0.3750000), wk =   0.0078125
        k(   10) = (   0.0000000   0.1250000  -0.5000000), wk =   0.0078125
        k(   11) = (  -0.0000000   0.1250000  -0.3750000), wk =   0.0078125
        k(   12) = (  -0.0000000   0.1250000  -0.2500000), wk =   0.0078125
        k(   13) = (  -0.0000000   0.1250000  -0.1250000), wk =   0.0078125
        k(   14) = (  -0.0000000   0.2500000  -0.0000000), wk =   0.0078125
        k(   15) = (  -0.0000000   0.2500000   0.1250000), wk =   0.0078125
        k(   16) = (  -0.0000000   0.2500000   0.2500000), wk =   0.0078125
        k(   17) = (  -0.0000000   0.2500000   0.3750000), wk =   0.0078125
        k(   18) = (  -0.0000000   0.2500000  -0.5000000), wk =   0.0078125
        k(   19) = (  -0.0000000   0.2500000  -0.3750000), wk =   0.0078125
        k(   20) = (  -0.0000000   0.2500000  -0.2500000), wk =   0.0078125
        k(   21) = (  -0.0000000   0.2500000  -0.1250000), wk =   0.0078125
        k(   22) = (  -0.0000000   0.3750000  -0.0000000), wk =   0.0078125
        k(   23) = (  -0.0000000   0.3750000   0.1250000), wk =   0.0078125
        k(   24) = (  -0.0000000   0.3750000   0.2500000), wk =   0.0078125
        k(   25) = (  -0.0000000   0.3750000   0.3750000), wk =   0.0078125
        k(   26) = (  -0.0000000   0.3750000  -0.5000000), wk =   0.0078125
        k(   27) = (  -0.0000000   0.3750000  -0.3750000), wk =   0.0078125
        k(   28) = (  -0.0000000   0.3750000  -0.2500000), wk =   0.0078125
        k(   29) = (  -0.0000000   0.3750000  -0.1250000), wk =   0.0078125
        k(   30) = (   0.0000000  -0.5000000   0.0000000), wk =   0.0039062
        k(   31) = (   0.0000000  -0.5000000   0.1250000), wk =   0.0078125
        k(   32) = (   0.0000000  -0.5000000   0.2500000), wk =   0.0078125
        k(   33) = (   0.0000000  -0.5000000   0.3750000), wk =   0.0078125
        k(   34) = (   0.0000000  -0.5000000  -0.5000000), wk =   0.0039062
        k(   35) = (   0.1250000   0.0000000  -0.0000000), wk =   0.0078125
        k(   36) = (   0.1250000   0.0000000   0.1250000), wk =   0.0078125
        k(   37) = (   0.1250000   0.0000000   0.2500000), wk =   0.0078125
        k(   38) = (   0.1250000   0.0000000   0.3750000), wk =   0.0078125
        k(   39) = (   0.1250000   0.0000000  -0.5000000), wk =   0.0078125
        k(   40) = (   0.1250000  -0.0000000  -0.3750000), wk =   0.0078125
        k(   41) = (   0.1250000   0.0000000  -0.2500000), wk =   0.0078125
        k(   42) = (   0.1250000   0.0000000  -0.1250000), wk =   0.0078125
        k(   43) = (   0.1250000   0.1250000   0.0000000), wk =   0.0078125
        k(   44) = (   0.1250000   0.1250000   0.1250000), wk =   0.0078125
        k(   45) = (   0.1250000   0.1250000   0.2500000), wk =   0.0078125
        k(   46) = (   0.1250000   0.1250000   0.3750000), wk =   0.0078125
        k(   47) = (   0.1250000   0.1250000  -0.5000000), wk =   0.0078125
        k(   48) = (   0.1250000   0.1250000  -0.3750000), wk =   0.0078125
        k(   49) = (   0.1250000   0.1250000  -0.2500000), wk =   0.0078125
        k(   50) = (   0.1250000   0.1250000  -0.1250000), wk =   0.0078125
        k(   51) = (   0.1250000   0.2500000  -0.0000000), wk =   0.0078125
        k(   52) = (   0.1250000   0.2500000   0.1250000), wk =   0.0078125
        k(   53) = (   0.1250000   0.2500000   0.2500000), wk =   0.0078125
        k(   54) = (   0.1250000   0.2500000   0.3750000), wk =   0.0078125
        k(   55) = (   0.1250000   0.2500000  -0.5000000), wk =   0.0078125
        k(   56) = (   0.1250000   0.2500000  -0.3750000), wk =   0.0078125
        k(   57) = (   0.1250000   0.2500000  -0.2500000), wk =   0.0078125
        k(   58) = (   0.1250000   0.2500000  -0.1250000), wk =   0.0078125
        k(   59) = (   0.1250000   0.3750000   0.0000000), wk =   0.0078125
        k(   60) = (   0.1250000   0.3750000   0.1250000), wk =   0.0078125
[...]
        k(  246) = (  -0.5000000   0.2500000  -0.2500000), wk =   0.0078125
        k(  247) = (  -0.5000000   0.2500000  -0.1250000), wk =   0.0078125
        k(  248) = (  -0.5000000   0.3750000  -0.0000000), wk =   0.0078125
        k(  249) = (  -0.5000000   0.3750000   0.1250000), wk =   0.0078125
        k(  250) = (  -0.5000000   0.3750000   0.2500000), wk =   0.0078125
        k(  251) = (  -0.5000000   0.3750000   0.3750000), wk =   0.0078125
        k(  252) = (  -0.5000000   0.3750000  -0.5000000), wk =   0.0078125
        k(  253) = (  -0.5000000   0.3750000  -0.3750000), wk =   0.0078125
        k(  254) = (  -0.5000000   0.3750000  -0.2500000), wk =   0.0078125
        k(  255) = (  -0.5000000   0.3750000  -0.1250000), wk =   0.0078125
        k(  256) = (  -0.5000000  -0.5000000  -0.0000000), wk =   0.0039062
        k(  257) = (  -0.5000000  -0.5000000   0.1250000), wk =   0.0078125
        k(  258) = (  -0.5000000  -0.5000000   0.2500000), wk =   0.0078125
        k(  259) = (  -0.5000000  -0.5000000   0.3750000), wk =   0.0078125
        k(  260) = (  -0.5000000  -0.5000000  -0.5000000), wk =   0.0039062

     Check: negative core charge=   -0.000003

     Initial potential from superposition of free atoms

     starting charge   41.69964, renormalised to   42.00000
     Starting wfcs are   26 randomized atomic wfcs

     Self-consistent Calculation

[...]

     total energy              =    -651.13036071 Ry
     Harris-Foulkes estimate   =    -651.13036072 Ry
     estimated scf accuracy    <       0.00000222 Ry

     iteration #  8     ecut=    80.00 Ry     beta= 0.50
     Davidson diagonalization with overlap
     ethr =  5.27E-09,  avg # of iterations =  2.1

     End of self-consistent calculation

[...]

          k = 0.3750 0.0722-0.0805 (  3862 PWs)   bands (ev):

[...]

          k =-0.5000-0.8660-0.3221 (  3864 PWs)   bands (ev):

  -115.9119 -70.2797 -70.2656 -70.2642 -65.2604 -32.2592 -32.2560 -32.2358
    -9.8523  -9.2202   1.3116   1.9948   2.0452   2.2549   2.7537   2.8500
     3.9381   5.1627   5.2167   5.7505   6.1932

     occupation numbers
     1.0000   1.0000   1.0000   1.0000   1.0000   1.0000   1.0000   1.0000
     1.0000   1.0000   1.0000   1.0000   1.0000   1.0000   1.0000   1.0000
     1.0000   1.0000   1.0000   1.0000   1.0000

     highest occupied level (ev):     6.8433

!    total energy              =    -651.13036104 Ry
     Harris-Foulkes estimate   =    -651.13036125 Ry
     estimated scf accuracy    <       0.00000056 Ry

     The total energy is the sum of the following terms:

     one-electron contribution =    -538.38914903 Ry
     hartree contribution      =     282.44132764 Ry
     xc contribution           =     -73.07054948 Ry
     ewald contribution        =    -322.11199017 Ry

     convergence has been achieved in   8 iterations

     Forces acting on atoms (cartesian axes, Ry/au):

     atom    1 type  3   force =     0.00000094    0.00000115    0.00342739
     atom    2 type  3   force =     0.00000099    0.00000084   -0.00648662
     atom    3 type  2   force =    -0.00000116   -0.00000118    0.01542459
     atom    4 type  1   force =    -0.00000078   -0.00000081   -0.01236536
     The non-local contrib.  to forces
     atom    1 type  3   force =    -0.00000076   -0.00000122   -0.13688422
     atom    2 type  3   force =     0.00000043   -0.00000039    0.08071472
     atom    3 type  2   force =    -0.00000012   -0.00000755   -0.15703316
     atom    4 type  1   force =    -0.00000114   -0.00000149   -0.01809145
     The ionic contribution  to forces
     atom    1 type  3   force =     0.00000809    0.00002568    6.46939667
     atom    2 type  3   force =    -0.00001142    0.00003280   -5.77044366
     atom    3 type  2   force =     0.00001215   -0.00004787    0.03142379
     atom    4 type  1   force =    -0.00000882   -0.00001062   -0.73037679
     The local contribution  to forces
     atom    1 type  3   force =    -0.00000639   -0.00002333   -6.33046827
     atom    2 type  3   force =     0.00001199   -0.00003164    5.68429790
     atom    3 type  2   force =    -0.00001319    0.00005429    0.14161139
     atom    4 type  1   force =     0.00000918    0.00001129    0.73590642
     The core correction contribution to forces
     atom    1 type  3   force =     0.00000001    0.00000000    0.00141634
     atom    2 type  3   force =     0.00000000   -0.00000000   -0.00118074
     atom    3 type  2   force =     0.00000000    0.00000000    0.00000000
     atom    4 type  1   force =     0.00000000    0.00000000    0.00000000
     The Hubbard contrib.    to forces
     atom    1 type  3   force =     0.00000000    0.00000000    0.00000000
     atom    2 type  3   force =     0.00000000    0.00000000    0.00000000
     atom    3 type  2   force =     0.00000000    0.00000000    0.00000000
     atom    4 type  1   force =     0.00000000    0.00000000    0.00000000
     The SCF correction term to forces
     atom    1 type  3   force =     0.00000000    0.00000000    0.00000000
     atom    2 type  3   force =     0.00000000    0.00000000    0.00000000
     atom    3 type  2   force =     0.00000000    0.00000000    0.00000000
     atom    4 type  1   force =     0.00000000    0.00000000    0.00000000

     Total force =     0.000000     Total SCF correction =     0.000000

     Computing stress (Cartesian axis) and pressure

          total   stress  (Ry/bohr**3)                   (kbar)     P=   10.80
   0.00007436  -0.00000000  -0.00000001         10.94     -0.00     -0.00
  -0.00000000   0.00007435  -0.00000001         -0.00     10.94     -0.00
  -0.00000001  -0.00000001   0.00007148         -0.00     -0.00     10.52

     kinetic stress (kbar)  26409.95     -0.00     -0.00
                               -0.00  26409.95     -0.00
                               -0.00     -0.00  26482.04

     local   stress (kbar) -18585.52      0.01     -0.05
                                0.01 -18585.47      0.03
                               -0.05      0.03   2929.12

     nonloc. stress (kbar)   1786.13      0.00      0.00
                                0.00   1786.13      0.00
                                0.00      0.00   1753.63

     hartree stress (kbar)  46768.30     -0.00      0.02
                               -0.00  46768.28     -0.01
                                0.02     -0.01  36547.35

     exc-cor stress (kbar) -10444.76      0.00      0.00
                                0.00 -10444.76     -0.00
                                0.00     -0.00 -10446.09

     corecor stress (kbar)   -248.90      0.00      0.00
                                0.00   -248.90      0.00
                                0.00      0.00   -249.05

     ewald   stress (kbar) -45674.26     -0.00      0.03
                               -0.00 -45674.29     -0.02
                                0.03     -0.02 -57006.49

     hubbard stress (kbar)      0.00      0.00      0.00
                                0.00      0.00      0.00
                                0.00      0.00      0.00

     london  stress (kbar)      0.00      0.00      0.00
                                0.00      0.00      0.00
                                0.00      0.00      0.00

     DFT-D3  stress (kbar)      0.00      0.00      0.00
                                0.00      0.00      0.00
                                0.00      0.00      0.00

     XDM     stress (kbar)      0.00      0.00      0.00
                                0.00      0.00      0.00
                                0.00      0.00      0.00

     dft-nl  stress (kbar)      0.00      0.00      0.00
                                0.00      0.00      0.00
                                0.00      0.00      0.00

     TS-vdW  stress (kbar)      0.00      0.00      0.00
                                0.00      0.00      0.00
                                0.00      0.00      0.00

     Writing output data file ZnO.save/

     General routines

     Parallel routines

   This run was terminated on:  19:56: 5  16Jun2022

   JOB DONE.