     Program PWSCF v.6.4.1 starts on 16Jun2022 at 20: 5:22

     K-points division:     npool     =       4
     R & G space division:  proc/nbgrp/npool/nimage =      16
     Waiting for input...
     Reading input from standard input

     Current dimensions of program PWSCF are:
     Max number of different atomic species (ntypx) = 10
     Max number of k-points (npk) =  40000
     Max angular momentum in pseudopotentials (lmaxx) =  3

     bravais-lattice index     =            0
     lattice parameter (alat)  =       6.3523  a.u.
     unit-cell volume          =     302.3197 (a.u.)^3
     number of atoms/cell      =            4
     number of atomic types    =            3
     number of electrons       =        42.00
     number of Kohn-Sham states=           21
     kinetic-energy cutoff     =      80.0000  Ry
     charge density cutoff     =     600.0000  Ry
     convergence threshold     =      1.0E-06
     mixing beta               =       0.5000
     number of iterations used =            8  plain     mixing
     Exchange-correlation      = SLA  PW   PSX  PSC ( 1  4 10  8 0 0)
     nstep                     =          200

     celldm(1)=   6.352267  celldm(2)=   0.000000  celldm(3)=   0.000000
     celldm(4)=   0.000000  celldm(5)=   0.000000  celldm(6)=   0.000000

     crystal axes: (cart. coord. in units of alat)
               a(1) = (   1.000000   0.000000   0.000000 )
               a(2) = (  -0.500000   0.866025  -0.000000 )
               a(3) = (  -0.000000   0.000000   1.361914 )

     reciprocal axes: (cart. coord. in units 2 pi/alat)
               b(1) = (  1.000000  0.577350  0.000000 )
               b(2) = ( -0.000000  1.154700 -0.000000 )
               b(3) = ( -0.000000 -0.000000  0.734261 )

     PseudoPot. # 1 for Mg read from file:
     ./GBRV_PBEsol/mg_pbesol_v1.4.uspp.F.UPF
     MD5 check sum: 4059f37963cf5867752dbf5ab2400678
     Pseudo is Ultrasoft, Zval = 10.0
     Generated by new atomic code, or converted to UPF format
     Using radial grid of  821 points,  7 beta functions with:
                l(1) =   0
                l(2) =   0
                l(3) =   0
                l(4) =   1
                l(5) =   1
                l(6) =   2
                l(7) =   2
     Q(r) pseudized with  8 coefficients,  rinner =    1.200   1.200   1.200
                                                       1.200   1.200

     PseudoPot. # 2 for Zn read from file:
     ./GBRV_PBEsol/zn_pbesol_v1.uspp.F.UPF
     MD5 check sum: 7d8615e52efe7c1e2b1899de8658bae2
     Pseudo is Ultrasoft, Zval = 20.0
     Generated by new atomic code, or converted to UPF format
     Using radial grid of  943 points,  6 beta functions with:
                l(1) =   0
                l(2) =   0
                l(3) =   1
                l(4) =   1
                l(5) =   2
                l(6) =   2
     Q(r) pseudized with  8 coefficients,  rinner =    1.100   1.100   1.100
                                                       1.100   1.100

     PseudoPot. # 3 for O  read from file:
     ./GBRV_PBEsol/o_pbesol_v1.2.uspp.F.UPF
     MD5 check sum: 501638753501ef6325af9037351f7734
     Pseudo is Ultrasoft + core correction, Zval =  6.0
     Generated by new atomic code, or converted to UPF format
     Using radial grid of  737 points,  5 beta functions with:
                l(1) =   0
                l(2) =   0
                l(3) =   1
                l(4) =   1
                l(5) =   2
     Q(r) pseudized with  8 coefficients,  rinner =    0.900   0.900   0.900
                                                       0.900   0.900

     atomic species   valence    mass     pseudopotential
        Mg            10.00    24.30500     Mg( 1.00)
        Zn            20.00    65.38000     Zn( 1.00)
        O              6.00    15.99900     O ( 1.00)

     No symmetry found

                                    s                        frac. trans.

      isym =  1     identity

 cryst.   s( 1) = (     1          0          0      )
                  (     0          1          0      )
                  (     0          0          1      )

 cart.    s( 1) = (  1.0000000 -0.0000000 -0.0000000 )
                  ( -0.0000000  1.0000000  0.0000000 )
                  (  0.0000000 -0.0000000  1.0000000 )

   Cartesian axes

     site n.     atom                  positions (alat units)
         1           O   tau(   1) = (   0.5000002   0.2886756   0.0100044  )
         2           O   tau(   2) = (   0.0000002   0.5773495   0.6909611  )
         3           Zn  tau(   3) = (   0.5000000   0.2886749   0.7817301  )
         4           Mg  tau(   4) = (  -0.0000002   0.5773512   1.4671603  )

   Crystallographic axes

     site n.     atom                  positions (cryst. coord.)
         1           O   tau(   1) = (  0.6666670  0.3333337  0.0073459  )
         2           O   tau(   2) = (  0.3333329  0.6666657  0.5073458  )
         3           Zn  tau(   3) = (  0.6666664  0.3333329  0.5739939  )
         4           Mg  tau(   4) = (  0.3333336  0.6666677  1.0772785  )

     number of k points=   260
                       cart. coord. in units 2pi/alat
        k(    1) = (   0.0000000   0.0000000   0.0000000), wk =   0.0039062
        k(    2) = (  -0.0000000  -0.0000000   0.0917826), wk =   0.0078125
        k(    3) = (  -0.0000000  -0.0000000   0.1835652), wk =   0.0078125
        k(    4) = (  -0.0000000  -0.0000000   0.2753479), wk =   0.0078125
        k(    5) = (   0.0000000   0.0000000  -0.3671305), wk =   0.0039062
        k(    6) = (  -0.0000000   0.1443376  -0.0000000), wk =   0.0078125
        k(    7) = (  -0.0000000   0.1443376   0.0917826), wk =   0.0078125
        k(    8) = (  -0.0000000   0.1443376   0.1835652), wk =   0.0078125
        k(    9) = (  -0.0000000   0.1443376   0.2753479), wk =   0.0078125
        k(   10) = (  -0.0000000   0.1443376  -0.3671305), wk =   0.0078125
        k(   11) = (  -0.0000000   0.1443376  -0.2753479), wk =   0.0078125
        k(   12) = (  -0.0000000   0.1443376  -0.1835652), wk =   0.0078125
        k(   13) = (  -0.0000000   0.1443376  -0.0917826), wk =   0.0078125
        k(   14) = (  -0.0000001   0.2886751  -0.0000000), wk =   0.0078125
        k(   15) = (  -0.0000001   0.2886751   0.0917826), wk =   0.0078125
        k(   16) = (  -0.0000001   0.2886751   0.1835652), wk =   0.0078125
        k(   17) = (  -0.0000001   0.2886751   0.2753479), wk =   0.0078125
        k(   18) = (  -0.0000001   0.2886751  -0.3671305), wk =   0.0078125
        k(   19) = (  -0.0000001   0.2886751  -0.2753479), wk =   0.0078125
        k(   20) = (  -0.0000001   0.2886751  -0.1835652), wk =   0.0078125
        k(   21) = (  -0.0000001   0.2886751  -0.0917826), wk =   0.0078125
        k(   22) = (  -0.0000001   0.4330127  -0.0000000), wk =   0.0078125
        k(   23) = (  -0.0000001   0.4330127   0.0917826), wk =   0.0078125
        k(   24) = (  -0.0000001   0.4330127   0.1835652), wk =   0.0078125
        k(   25) = (  -0.0000001   0.4330127   0.2753479), wk =   0.0078125
        k(   26) = (  -0.0000001   0.4330127  -0.3671305), wk =   0.0078125
        k(   27) = (  -0.0000001   0.4330127  -0.2753479), wk =   0.0078125
        k(   28) = (  -0.0000001   0.4330127  -0.1835652), wk =   0.0078125
        k(   29) = (  -0.0000001   0.4330127  -0.0917826), wk =   0.0078125
        k(   30) = (   0.0000001  -0.5773502   0.0000000), wk =   0.0039062
        k(   31) = (   0.0000001  -0.5773502   0.0917826), wk =   0.0078125
        k(   32) = (   0.0000001  -0.5773502   0.1835652), wk =   0.0078125
        k(   33) = (   0.0000001  -0.5773502   0.2753479), wk =   0.0078125
        k(   34) = (   0.0000001  -0.5773502  -0.3671305), wk =   0.0039062
        k(   35) = (   0.1250000   0.0721688   0.0000000), wk =   0.0078125
        k(   36) = (   0.1250000   0.0721688   0.0917826), wk =   0.0078125
        k(   37) = (   0.1250000   0.0721688   0.1835652), wk =   0.0078125
        k(   38) = (   0.1250000   0.0721688   0.2753479), wk =   0.0078125
        k(   39) = (   0.1250000   0.0721688  -0.3671305), wk =   0.0078125
        k(   40) = (   0.1250000   0.0721688  -0.2753479), wk =   0.0078125
        k(   41) = (   0.1250000   0.0721688  -0.1835652), wk =   0.0078125
        k(   42) = (   0.1250000   0.0721688  -0.0917826), wk =   0.0078125
        k(   43) = (   0.1250000   0.2165063   0.0000000), wk =   0.0078125
        k(   44) = (   0.1250000   0.2165063   0.0917826), wk =   0.0078125
        k(   45) = (   0.1250000   0.2165063   0.1835652), wk =   0.0078125
        k(   46) = (   0.1249999   0.2165063   0.2753479), wk =   0.0078125
        k(   47) = (   0.1250000   0.2165063  -0.3671305), wk =   0.0078125
        k(   48) = (   0.1250000   0.2165063  -0.2753479), wk =   0.0078125
        k(   49) = (   0.1250000   0.2165063  -0.1835652), wk =   0.0078125
        k(   50) = (   0.1250000   0.2165063  -0.0917826), wk =   0.0078125
        k(   51) = (   0.1249999   0.3608439   0.0000000), wk =   0.0078125
        k(   52) = (   0.1249999   0.3608439   0.0917826), wk =   0.0078125
        k(   53) = (   0.1249999   0.3608439   0.1835652), wk =   0.0078125
        k(   54) = (   0.1249999   0.3608439   0.2753479), wk =   0.0078125
        k(   55) = (   0.1249999   0.3608439  -0.3671305), wk =   0.0078125
        k(   56) = (   0.1249999   0.3608439  -0.2753479), wk =   0.0078125
        k(   57) = (   0.1249999   0.3608439  -0.1835652), wk =   0.0078125
        k(   58) = (   0.1249999   0.3608439  -0.0917826), wk =   0.0078125
        k(   59) = (   0.1249999   0.5051814   0.0000000), wk =   0.0078125
        k(   60) = (   0.1249999   0.5051814   0.0917826), wk =   0.0078125
[...]
        k(  246) = (  -0.5000000   0.0000001  -0.1835653), wk =   0.0078125
        k(  247) = (  -0.5000000   0.0000001  -0.0917826), wk =   0.0078125
        k(  248) = (  -0.5000000   0.1443377  -0.0000000), wk =   0.0078125
        k(  249) = (  -0.5000000   0.1443377   0.0917826), wk =   0.0078125
        k(  250) = (  -0.5000000   0.1443377   0.1835652), wk =   0.0078125
        k(  251) = (  -0.5000000   0.1443377   0.2753478), wk =   0.0078125
        k(  252) = (  -0.5000000   0.1443377  -0.3671305), wk =   0.0078125
        k(  253) = (  -0.5000000   0.1443377  -0.2753479), wk =   0.0078125
        k(  254) = (  -0.5000000   0.1443377  -0.1835653), wk =   0.0078125
        k(  255) = (  -0.5000000   0.1443377  -0.0917826), wk =   0.0078125
        k(  256) = (  -0.4999998  -0.8660253  -0.0000000), wk =   0.0039062
        k(  257) = (  -0.4999998  -0.8660253   0.0917826), wk =   0.0078125
        k(  258) = (  -0.4999998  -0.8660253   0.1835652), wk =   0.0078125
        k(  259) = (  -0.4999998  -0.8660253   0.2753478), wk =   0.0078125
        k(  260) = (  -0.4999998  -0.8660253  -0.3671305), wk =   0.0039062

                       cryst. coord.
        k(    1) = (   0.0000000   0.0000000   0.0000000), wk =   0.0039062
        k(    2) = (   0.0000000  -0.0000000   0.1250000), wk =   0.0078125
        k(    3) = (   0.0000000  -0.0000000   0.2500000), wk =   0.0078125
[...]
        k(   23) = (  -0.0000001   0.4329054   0.0888146), wk =   0.0078125
        k(   24) = (  -0.0000001   0.4329054   0.1776292), wk =   0.0078125
        k(   25) = (  -0.0000001   0.4329054   0.2664437), wk =   0.0078125
        k(   26) = (   0.0000000   0.4329053  -0.3552581), wk =   0.0078125
        k(   27) = (   0.0000000   0.4329053  -0.2664435), wk =   0.0078125
        k(   28) = (   0.0000000   0.4329053  -0.1776290), wk =   0.0078125
        k(   29) = (  -0.0000000   0.4329053  -0.0888144), wk =   0.0078125
        k(   30) = (   0.0000001  -0.5772072  -0.0000001), wk =   0.0039062
        k(   31) = (   0.0000000  -0.5772071   0.0888144), wk =   0.0078125
        k(   32) = (   0.0000000  -0.5772071   0.1776289), wk =   0.0078125
        k(   33) = (  -0.0000000  -0.5772071   0.2664435), wk =   0.0078125
        k(   34) = (   0.0000001  -0.5772072  -0.3552583), wk =   0.0039062
        k(   35) = (   0.1249690   0.0721509  -0.0000000), wk =   0.0078125
        k(   36) = (   0.1249690   0.0721509   0.0888145), wk =   0.0078125
        k(   37) = (   0.1249690   0.0721509   0.1776291), wk =   0.0078125
        k(   38) = (   0.1249689   0.0721509   0.2664436), wk =   0.0078125
        k(   39) = (   0.1249691   0.0721508  -0.3552582), wk =   0.0078125
        k(   40) = (   0.1249691   0.0721508  -0.2664436), wk =   0.0078125
        k(   41) = (   0.1249690   0.0721508  -0.1776291), wk =   0.0078125
        k(   42) = (   0.1249690   0.0721509  -0.0888145), wk =   0.0078125
        k(   43) = (   0.1249690   0.2164527   0.0000000), wk =   0.0078125
        k(   44) = (   0.1249690   0.2164527   0.0888146), wk =   0.0078125
        k(   45) = (   0.1249689   0.2164527   0.1776291), wk =   0.0078125
        k(   46) = (   0.1249689   0.2164527   0.2664436), wk =   0.0078125
        k(   47) = (   0.1249691   0.2164526  -0.3552581), wk =   0.0078125
        k(   48) = (   0.1249690   0.2164526  -0.2664436), wk =   0.0078125
        k(   49) = (   0.1249690   0.2164526  -0.1776290), wk =   0.0078125
        k(   50) = (   0.1249690   0.2164527  -0.0888145), wk =   0.0078125
        k(   51) = (   0.1249690   0.3607545   0.0000001), wk =   0.0078125
        k(   52) = (   0.1249690   0.3607545   0.0888146), wk =   0.0078125
        k(   53) = (   0.1249689   0.3607545   0.1776291), wk =   0.0078125
        k(   54) = (   0.1249689   0.3607545   0.2664437), wk =   0.0078125
        k(   55) = (   0.1249691   0.3607544  -0.3552581), wk =   0.0078125
        k(   56) = (   0.1249690   0.3607544  -0.2664436), wk =   0.0078125
        k(   57) = (   0.1249690   0.3607544  -0.1776290), wk =   0.0078125
        k(   58) = (   0.1249690   0.3607544  -0.0888145), wk =   0.0078125
        k(   59) = (   0.1249690   0.5050563   0.0000001), wk =   0.0078125
        k(   60) = (   0.1249689   0.5050563   0.0888146), wk =   0.0078125
[...]
        k(  246) = (  -0.4998760   0.0000000  -0.1776290), wk =   0.0078125
        k(  247) = (  -0.4998760   0.0000000  -0.0888145), wk =   0.0078125
        k(  248) = (  -0.4998760   0.1443018   0.0000001), wk =   0.0078125
        k(  249) = (  -0.4998761   0.1443019   0.0888146), wk =   0.0078125
        k(  250) = (  -0.4998761   0.1443019   0.1776292), wk =   0.0078125
        k(  251) = (  -0.4998761   0.1443019   0.2664437), wk =   0.0078125
        k(  252) = (  -0.4998760   0.1443017  -0.3552581), wk =   0.0078125
        k(  253) = (  -0.4998760   0.1443018  -0.2664435), wk =   0.0078125
        k(  254) = (  -0.4998760   0.1443018  -0.1776290), wk =   0.0078125
        k(  255) = (  -0.4998760   0.1443018  -0.0888144), wk =   0.0078125
        k(  256) = (  -0.4998759  -0.8658107  -0.0000001), wk =   0.0039062
        k(  257) = (  -0.4998760  -0.8658107   0.0888144), wk =   0.0078125
        k(  258) = (  -0.4998760  -0.8658106   0.1776289), wk =   0.0078125
        k(  259) = (  -0.4998760  -0.8658106   0.2664435), wk =   0.0078125
        k(  260) = (  -0.4998759  -0.8658108  -0.3552583), wk =   0.0039062

                       cryst. coord.
        k(    1) = (   0.0000000   0.0000000   0.0000000), wk =   0.0039062
        k(    2) = (  -0.0000000   0.0000000   0.1250000), wk =   0.0078125
        k(    3) = (  -0.0000000   0.0000000   0.2500000), wk =   0.0078125
        k(    4) = (  -0.0000000   0.0000000   0.3750000), wk =   0.0078125
        k(    5) = (   0.0000000  -0.0000000  -0.5000000), wk =   0.0039062
        k(    6) = (   0.0000000   0.1250000   0.0000000), wk =   0.0078125
        k(    7) = (  -0.0000000   0.1250000   0.1250000), wk =   0.0078125
        k(    8) = (  -0.0000000   0.1250000   0.2500000), wk =   0.0078125
        k(    9) = (   0.0000000   0.1250000   0.3750000), wk =   0.0078125
        k(   10) = (  -0.0000000   0.1250000  -0.5000000), wk =   0.0078125
        k(   11) = (   0.0000000   0.1250000  -0.3750000), wk =   0.0078125
        k(   12) = (   0.0000000   0.1250000  -0.2500000), wk =   0.0078125
        k(   13) = (   0.0000000   0.1250000  -0.1250000), wk =   0.0078125
        k(   14) = (   0.0000000   0.2500000   0.0000000), wk =   0.0078125
        k(   15) = (   0.0000000   0.2500000   0.1250000), wk =   0.0078125
        k(   16) = (  -0.0000000   0.2500000   0.2500000), wk =   0.0078125
        k(   17) = (   0.0000000   0.2500000   0.3750000), wk =   0.0078125
        k(   18) = (   0.0000000   0.2500000  -0.5000000), wk =   0.0078125
        k(   19) = (   0.0000000   0.2500000  -0.3750000), wk =   0.0078125
        k(   20) = (   0.0000000   0.2500000  -0.2500000), wk =   0.0078125
        k(   21) = (   0.0000000   0.2500000  -0.1250000), wk =   0.0078125
        k(   22) = (   0.0000000   0.3750000   0.0000000), wk =   0.0078125
        k(   23) = (   0.0000000   0.3750000   0.1250000), wk =   0.0078125
        k(   24) = (   0.0000000   0.3750000   0.2500000), wk =   0.0078125
        k(   25) = (   0.0000000   0.3750000   0.3750000), wk =   0.0078125
        k(   26) = (   0.0000000   0.3750000  -0.5000000), wk =   0.0078125
        k(   27) = (   0.0000000   0.3750000  -0.3750000), wk =   0.0078125
        k(   28) = (   0.0000000   0.3750000  -0.2500000), wk =   0.0078125
        k(   29) = (   0.0000000   0.3750000  -0.1250000), wk =   0.0078125
        k(   30) = (  -0.0000000  -0.5000000  -0.0000000), wk =   0.0039062
        k(   31) = (   0.0000000  -0.5000000   0.1250000), wk =   0.0078125
        k(   32) = (  -0.0000000  -0.5000000   0.2500000), wk =   0.0078125
        k(   33) = (  -0.0000000  -0.5000000   0.3750000), wk =   0.0078125
        k(   34) = (   0.0000000  -0.5000000  -0.5000000), wk =   0.0039062
        k(   35) = (   0.1250000  -0.0000000   0.0000000), wk =   0.0078125
        k(   36) = (   0.1250000  -0.0000000   0.1250000), wk =   0.0078125
        k(   37) = (   0.1250000   0.0000000   0.2500000), wk =   0.0078125
        k(   38) = (   0.1250000  -0.0000000   0.3750000), wk =   0.0078125
        k(   39) = (   0.1250000  -0.0000000  -0.5000000), wk =   0.0078125
        k(   40) = (   0.1250000   0.0000000  -0.3750000), wk =   0.0078125
        k(   41) = (   0.1250000  -0.0000000  -0.2500000), wk =   0.0078125
        k(   42) = (   0.1250000  -0.0000000  -0.1250000), wk =   0.0078125
        k(   43) = (   0.1250000   0.1250000   0.0000000), wk =   0.0078125
        k(   44) = (   0.1250000   0.1250000   0.1250000), wk =   0.0078125
        k(   45) = (   0.1250000   0.1250000   0.2500000), wk =   0.0078125
        k(   46) = (   0.1250000   0.1250000   0.3750000), wk =   0.0078125
        k(   47) = (   0.1250000   0.1250000  -0.5000000), wk =   0.0078125
        k(   48) = (   0.1250000   0.1250000  -0.3750000), wk =   0.0078125
        k(   49) = (   0.1250000   0.1250000  -0.2500000), wk =   0.0078125
        k(   50) = (   0.1250000   0.1250000  -0.1250000), wk =   0.0078125
        k(   51) = (   0.1250000   0.2500000   0.0000000), wk =   0.0078125
        k(   52) = (   0.1250000   0.2500000   0.1250000), wk =   0.0078125
        k(   53) = (   0.1250000   0.2500000   0.2500000), wk =   0.0078125
        k(   54) = (   0.1250000   0.2500000   0.3750000), wk =   0.0078125
        k(   55) = (   0.1250000   0.2500000  -0.5000000), wk =   0.0078125
        k(   56) = (   0.1250000   0.2500000  -0.3750000), wk =   0.0078125
        k(   57) = (   0.1250000   0.2500000  -0.2500000), wk =   0.0078125
        k(   58) = (   0.1250000   0.2500000  -0.1250000), wk =   0.0078125
        k(   59) = (   0.1250000   0.3750000   0.0000000), wk =   0.0078125
        k(   60) = (   0.1250000   0.3750000   0.1250000), wk =   0.0078125
[...]
        k(  246) = (  -0.5000000   0.2500000  -0.2500000), wk =   0.0078125
        k(  247) = (  -0.5000000   0.2500000  -0.1250000), wk =   0.0078125
        k(  248) = (  -0.5000000   0.3750000   0.0000000), wk =   0.0078125
        k(  249) = (  -0.5000000   0.3750000   0.1250000), wk =   0.0078125
        k(  250) = (  -0.5000000   0.3750000   0.2500000), wk =   0.0078125
        k(  251) = (  -0.5000000   0.3750000   0.3750000), wk =   0.0078125
        k(  252) = (  -0.5000000   0.3750000  -0.5000000), wk =   0.0078125
        k(  253) = (  -0.5000000   0.3750000  -0.3750000), wk =   0.0078125
        k(  254) = (  -0.5000000   0.3750000  -0.2500000), wk =   0.0078125
        k(  255) = (  -0.5000000   0.3750000  -0.1250000), wk =   0.0078125
        k(  256) = (  -0.5000000  -0.5000000  -0.0000000), wk =   0.0039062
        k(  257) = (  -0.5000000  -0.5000000   0.1250000), wk =   0.0078125
        k(  258) = (  -0.5000000  -0.5000000   0.2500000), wk =   0.0078125
        k(  259) = (  -0.5000000  -0.5000000   0.3750000), wk =   0.0078125
        k(  260) = (  -0.5000000  -0.5000000  -0.5000000), wk =   0.0039062

     Check: negative core charge=   -0.000003

     Initial potential from superposition of free atoms

     starting charge   41.69964, renormalised to   42.00000
     Starting wfcs are   26 randomized atomic wfcs

     Self-consistent Calculation

[...]

     total energy              =    -651.12628318 Ry
     Harris-Foulkes estimate   =    -651.12628318 Ry
     estimated scf accuracy    <       0.00000002 Ry

     iteration # 10     ecut=    80.00 Ry     beta= 0.50
     Davidson diagonalization with overlap
     ethr =  5.76E-11,  avg # of iterations =  2.1

     End of self-consistent calculation

[...]

          k = 0.3749 0.0722-0.0888 (  3775 PWs)   bands (ev):

[...]

          k =-0.4999-0.8658-0.3553 (  3772 PWs)   bands (ev):

  -115.6911 -70.0663 -70.0416 -70.0405 -65.0137 -32.0207 -32.0016 -31.9824
    -9.6044  -8.9182   1.5653   2.0831   2.2983   2.2995   2.8699   3.1374
     4.2704   5.3186   5.7306   5.7946   6.9014

     occupation numbers
     1.0000   1.0000   1.0000   1.0000   1.0000   1.0000   1.0000   1.0000
     1.0000   1.0000   1.0000   1.0000   1.0000   1.0000   1.0000   1.0000
     1.0000   1.0000   1.0000   1.0000   1.0000

     highest occupied level (ev):     7.0787

!    total energy              =    -651.12628319 Ry
     Harris-Foulkes estimate   =    -651.12628319 Ry
     estimated scf accuracy    <          1.6E-10 Ry

     The total energy is the sum of the following terms:

     one-electron contribution =    -530.53472746 Ry
     hartree contribution      =     278.89276573 Ry
     xc contribution           =     -73.08032040 Ry
     ewald contribution        =    -326.40400105 Ry

     convergence has been achieved in  10 iterations

     Forces acting on atoms (cartesian axes, Ry/au):

     atom    1 type  3   force =     0.00000001   -0.00000003   -0.00144313
     atom    2 type  3   force =    -0.00000010    0.00000028   -0.00710819
     atom    3 type  2   force =     0.00000023    0.00000043    0.01311471
     atom    4 type  1   force =    -0.00000015   -0.00000069   -0.00456339
     The non-local contrib.  to forces
     atom    1 type  3   force =    -0.00000033   -0.00000115   -0.16563383
     atom    2 type  3   force =     0.00000014    0.00000104   -0.01412523
     atom    3 type  2   force =     0.00000080   -0.00000381   -0.27804337
     atom    4 type  1   force =     0.00000046   -0.00000089   -0.09724235
     The ionic contribution  to forces
     atom    1 type  3   force =    -0.00000340    0.00002466    4.64915242
     atom    2 type  3   force =    -0.00000531    0.00001308   -2.49668216
     atom    3 type  2   force =     0.00000423   -0.00002346   -1.00222486
     atom    4 type  1   force =     0.00000449   -0.00001427   -1.15024540
     The local contribution  to forces
     atom    1 type  3   force =     0.00000373   -0.00002353   -4.48626520
     atom    2 type  3   force =     0.00000508   -0.00001381    2.50416039
     atom    3 type  2   force =    -0.00000481    0.00002768    1.29339205
     atom    4 type  1   force =    -0.00000509    0.00001448    1.24292301
     The core correction contribution to forces
     atom    1 type  3   force =     0.00000001   -0.00000001    0.00130053
     atom    2 type  3   force =     0.00000000   -0.00000002   -0.00045971
     atom    3 type  2   force =     0.00000000    0.00000000    0.00000000
     atom    4 type  1   force =     0.00000000    0.00000000    0.00000000
     The Hubbard contrib.    to forces
     atom    1 type  3   force =     0.00000000    0.00000000    0.00000000
     atom    2 type  3   force =     0.00000000    0.00000000    0.00000000
     atom    3 type  2   force =     0.00000000    0.00000000    0.00000000
     atom    4 type  1   force =     0.00000000    0.00000000    0.00000000
     The SCF correction term to forces
     atom    1 type  3   force =     0.00000000    0.00000000    0.00000000
     atom    2 type  3   force =     0.00000000    0.00000000    0.00000000
     atom    3 type  2   force =     0.00000000    0.00000000    0.00000000
     atom    4 type  1   force =     0.00000000    0.00000000    0.00000000

     Total force =     0.000000     Total SCF correction =     0.000000

     Computing stress (Cartesian axis) and pressure

          total   stress  (Ry/bohr**3)                   (kbar)     P=    1.30
   0.00000879   0.00000000  -0.00000001          1.29      0.00     -0.00
   0.00000000   0.00000879   0.00000001          0.00      1.29      0.00
  -0.00000001   0.00000001   0.00000885         -0.00      0.00      1.30

     kinetic stress (kbar)  26957.37      0.00     -0.00
                                0.00  26957.37      0.00
                               -0.00      0.00  27133.38

     local   stress (kbar) -15032.80     -0.01     -0.03
                               -0.01 -15032.82      0.04
                               -0.03      0.04  -1234.80

     nonloc. stress (kbar)   1825.94      0.00      0.00
                                0.00   1825.94     -0.00
                                0.00     -0.00   1750.09

     hartree stress (kbar)  45830.41      0.01      0.01
                                0.01  45830.42     -0.02
                                0.01     -0.02  39591.41

     exc-cor stress (kbar) -10673.17      0.00      0.00
                                0.00 -10673.17     -0.00
                                0.00     -0.00 -10676.61

     corecor stress (kbar)   -254.28      0.00      0.00
                                0.00   -254.28     -0.00
                                0.00     -0.00   -254.59

     ewald   stress (kbar) -48652.17      0.01      0.02
                                0.01 -48652.17     -0.02
                                0.02     -0.02 -56307.59

     hubbard stress (kbar)      0.00      0.00      0.00
                                0.00      0.00      0.00
                                0.00      0.00      0.00

     london  stress (kbar)      0.00      0.00      0.00
                                0.00      0.00      0.00
                                0.00      0.00      0.00

     DFT-D3  stress (kbar)      0.00      0.00      0.00
                                0.00      0.00      0.00
                                0.00      0.00      0.00

     XDM     stress (kbar)      0.00      0.00      0.00
                                0.00      0.00      0.00
                                0.00      0.00      0.00

     dft-nl  stress (kbar)      0.00      0.00      0.00
                                0.00      0.00      0.00
                                0.00      0.00      0.00

     TS-vdW  stress (kbar)      0.00      0.00      0.00
                                0.00      0.00      0.00
                                0.00      0.00      0.00

     Writing output data file ZnO.save/

     General routines

     Parallel routines

   This run was terminated on:  20: 8: 6  16Jun2022

   JOB DONE.