     Program PWSCF v.6.4.1 starts on  7Jun2022 at 23: 1: 0

     K-points division:     npool     =       4
     R & G space division:  proc/nbgrp/npool/nimage =      16
     Waiting for input...
     Reading input from standard input

     Current dimensions of program PWSCF are:
     Max number of different atomic species (ntypx) = 10
     Max number of k-points (npk) =  40000
     Max angular momentum in pseudopotentials (lmaxx) =  3

     bravais-lattice index     =            0
     lattice parameter (alat)  =       6.1103  a.u.
     unit-cell volume          =     318.8455 (a.u.)^3
     number of atoms/cell      =            4
     number of atomic types    =            2
     number of electrons       =        52.00
     number of Kohn-Sham states=           26
     kinetic-energy cutoff     =      80.0000  Ry
     charge density cutoff     =     600.0000  Ry
     convergence threshold     =      1.0E-06
     mixing beta               =       0.5000
     number of iterations used =            8  plain     mixing
     Exchange-correlation      = SLA  PW   PSX  PSC ( 1  4 10  8 0 0)
     nstep                     =          200

     celldm(1)=   6.110292  celldm(2)=   0.000000  celldm(3)=   0.000000
     celldm(4)=   0.000000  celldm(5)=   0.000000  celldm(6)=   0.000000

     crystal axes: (cart. coord. in units of alat)
               a(1) = (   1.000000  -0.000000  -0.000000 )
               a(2) = (  -0.500000   0.866025  -0.000000 )
               a(3) = (  -0.000000  -0.000000   1.613853 )

     reciprocal axes: (cart. coord. in units 2 pi/alat)
               b(1) = (  1.000000  0.577350  0.000000 )
               b(2) = (  0.000000  1.154701  0.000000 )
               b(3) = (  0.000000  0.000000  0.619635 )

     PseudoPot. # 1 for Zn read from file:
     ./GBRV_PBEsol/zn_pbesol_v1.uspp.F.UPF
     MD5 check sum: 7d8615e52efe7c1e2b1899de8658bae2
     Pseudo is Ultrasoft, Zval = 20.0
     Generated by new atomic code, or converted to UPF format
     Using radial grid of  943 points,  6 beta functions with:
                l(1) =   0
                l(2) =   0
                l(3) =   1
                l(4) =   1
                l(5) =   2
                l(6) =   2
     Q(r) pseudized with  8 coefficients,  rinner =    1.100   1.100   1.100
                                                       1.100   1.100

     PseudoPot. # 2 for O  read from file:
     ./GBRV_PBEsol/o_pbesol_v1.2.uspp.F.UPF
     MD5 check sum: 501638753501ef6325af9037351f7734
     Pseudo is Ultrasoft + core correction, Zval =  6.0
     Generated by new atomic code, or converted to UPF format
     Using radial grid of  737 points,  5 beta functions with:
                l(1) =   0
                l(2) =   0
                l(3) =   1
                l(4) =   1
                l(5) =   2
     Q(r) pseudized with  8 coefficients,  rinner =    0.900   0.900   0.900
                                                       0.900   0.900

     atomic species   valence    mass     pseudopotential
        Zn            20.00    65.38000     Zn( 1.00)
        O              6.00    15.99900     O ( 1.00)

     No symmetry found

                                    s                        frac. trans.

      isym =  1     identity

 cryst.   s( 1) = (     1          0          0      )
                  (     0          1          0      )
                  (     0          0          1      )

 cart.    s( 1) = (  1.0000000  0.0000000 -0.0000000 )
                  ( -0.0000000  1.0000000  0.0000000 )
                  ( -0.0000000 -0.0000000  1.0000000 )

   Cartesian axes

     site n.     atom                  positions (alat units)
         1           O   tau(   1) = (   0.5000001   0.2886754   0.0118550  )
         2           O   tau(   2) = (  -0.0000000   0.5773492   0.8187812  )
         3           Zn  tau(   3) = (   0.4999999   0.2886746   0.8494580  )
         4           Zn  tau(   4) = (  -0.0000004   0.5773508   1.6563842  )

   Crystallographic axes

     site n.     atom                  positions (cryst. coord.)
         1           O   tau(   1) = (  0.6666670  0.3333337  0.0073459  )
         2           O   tau(   2) = (  0.3333329  0.6666657  0.5073458  )
         3           Zn  tau(   3) = (  0.6666664  0.3333329  0.5263542  )
         4           Zn  tau(   4) = (  0.3333336  0.6666677  1.0263542  )

     number of k points=   260
                       cart. coord. in units 2pi/alat
        k(    1) = (   0.0000000   0.0000000   0.0000000), wk =   0.0039062
        k(    2) = (   0.0000000   0.0000000   0.0774544), wk =   0.0078125
        k(    3) = (   0.0000000   0.0000000   0.1549088), wk =   0.0078125
        k(    4) = (   0.0000000   0.0000000   0.2323632), wk =   0.0078125
        k(    5) = (  -0.0000000  -0.0000000  -0.3098176), wk =   0.0039062
        k(    6) = (   0.0000000   0.1443376   0.0000000), wk =   0.0078125
        k(    7) = (   0.0000000   0.1443376   0.0774544), wk =   0.0078125
        k(    8) = (   0.0000000   0.1443376   0.1549088), wk =   0.0078125
        k(    9) = (   0.0000000   0.1443376   0.2323633), wk =   0.0078125
        k(   10) = (  -0.0000000   0.1443375  -0.3098176), wk =   0.0078125
        k(   11) = (  -0.0000000   0.1443376  -0.2323632), wk =   0.0078125
        k(   12) = (  -0.0000000   0.1443376  -0.1549088), wk =   0.0078125
        k(   13) = (  -0.0000000   0.1443376  -0.0774544), wk =   0.0078125
        k(   14) = (   0.0000000   0.2886752   0.0000000), wk =   0.0078125
        k(   15) = (   0.0000000   0.2886752   0.0774545), wk =   0.0078125
        k(   16) = (   0.0000000   0.2886752   0.1549089), wk =   0.0078125
        k(   17) = (   0.0000000   0.2886752   0.2323633), wk =   0.0078125
        k(   18) = (  -0.0000000   0.2886751  -0.3098176), wk =   0.0078125
        k(   19) = (  -0.0000000   0.2886752  -0.2323632), wk =   0.0078125
        k(   20) = (  -0.0000000   0.2886752  -0.1549088), wk =   0.0078125
        k(   21) = (  -0.0000000   0.2886752  -0.0774544), wk =   0.0078125
        k(   22) = (   0.0000000   0.4330128   0.0000001), wk =   0.0078125
        k(   23) = (   0.0000000   0.4330128   0.0774545), wk =   0.0078125
        k(   24) = (   0.0000000   0.4330128   0.1549089), wk =   0.0078125
        k(   25) = (   0.0000000   0.4330128   0.2323633), wk =   0.0078125
        k(   26) = (  -0.0000000   0.4330127  -0.3098176), wk =   0.0078125
        k(   27) = (  -0.0000000   0.4330127  -0.2323632), wk =   0.0078125
        k(   28) = (  -0.0000000   0.4330128  -0.1549088), wk =   0.0078125
        k(   29) = (  -0.0000000   0.4330128  -0.0774543), wk =   0.0078125
        k(   30) = (  -0.0000000  -0.5773504  -0.0000001), wk =   0.0039062
        k(   31) = (  -0.0000000  -0.5773504   0.0774543), wk =   0.0078125
        k(   32) = (   0.0000000  -0.5773503   0.1549087), wk =   0.0078125
        k(   33) = (   0.0000000  -0.5773503   0.2323631), wk =   0.0078125
        k(   34) = (  -0.0000000  -0.5773504  -0.3098177), wk =   0.0039062
        k(   35) = (   0.1250000   0.0721688   0.0000000), wk =   0.0078125
        k(   36) = (   0.1250000   0.0721688   0.0774544), wk =   0.0078125
        k(   37) = (   0.1250000   0.0721688   0.1549088), wk =   0.0078125
        k(   38) = (   0.1250000   0.0721688   0.2323633), wk =   0.0078125
        k(   39) = (   0.1250000   0.0721688  -0.3098176), wk =   0.0078125
        k(   40) = (   0.1250000   0.0721688  -0.2323632), wk =   0.0078125
        k(   41) = (   0.1250000   0.0721688  -0.1549088), wk =   0.0078125
        k(   42) = (   0.1250000   0.0721688  -0.0774544), wk =   0.0078125
        k(   43) = (   0.1250000   0.2165064   0.0000000), wk =   0.0078125
        k(   44) = (   0.1250000   0.2165064   0.0774545), wk =   0.0078125
        k(   45) = (   0.1250000   0.2165064   0.1549089), wk =   0.0078125
        k(   46) = (   0.1250000   0.2165064   0.2323633), wk =   0.0078125
        k(   47) = (   0.1250000   0.2165063  -0.3098176), wk =   0.0078125
        k(   48) = (   0.1250000   0.2165064  -0.2323632), wk =   0.0078125
        k(   49) = (   0.1250000   0.2165064  -0.1549088), wk =   0.0078125
        k(   50) = (   0.1250000   0.2165064  -0.0774544), wk =   0.0078125
        k(   51) = (   0.1250000   0.3608440   0.0000001), wk =   0.0078125
        k(   52) = (   0.1250000   0.3608440   0.0774545), wk =   0.0078125
        k(   53) = (   0.1250000   0.3608440   0.1549089), wk =   0.0078125
        k(   54) = (   0.1250000   0.3608440   0.2323633), wk =   0.0078125
        k(   55) = (   0.1250000   0.3608439  -0.3098176), wk =   0.0078125
        k(   56) = (   0.1250000   0.3608440  -0.2323632), wk =   0.0078125
        k(   57) = (   0.1250000   0.3608440  -0.1549088), wk =   0.0078125
        k(   58) = (   0.1250000   0.3608440  -0.0774543), wk =   0.0078125
        k(   59) = (   0.1250000   0.5051816   0.0000001), wk =   0.0078125
        k(   60) = (   0.1250000   0.5051816   0.0774545), wk =   0.0078125
[...]
        k(  246) = (  -0.5000000  -0.0000000  -0.1549089), wk =   0.0078125
        k(  247) = (  -0.5000000  -0.0000000  -0.0774545), wk =   0.0078125
        k(  248) = (  -0.5000000   0.1443376  -0.0000000), wk =   0.0078125
        k(  249) = (  -0.5000000   0.1443376   0.0774544), wk =   0.0078125
        k(  250) = (  -0.5000000   0.1443376   0.1549088), wk =   0.0078125
        k(  251) = (  -0.5000000   0.1443376   0.2323632), wk =   0.0078125
        k(  252) = (  -0.5000000   0.1443375  -0.3098177), wk =   0.0078125
        k(  253) = (  -0.5000000   0.1443375  -0.2323633), wk =   0.0078125
        k(  254) = (  -0.5000000   0.1443376  -0.1549089), wk =   0.0078125
        k(  255) = (  -0.5000000   0.1443376  -0.0774544), wk =   0.0078125
        k(  256) = (  -0.5000000  -0.8660256  -0.0000002), wk =   0.0039062
        k(  257) = (  -0.5000000  -0.8660256   0.0774542), wk =   0.0078125
        k(  258) = (  -0.5000000  -0.8660255   0.1549086), wk =   0.0078125
        k(  259) = (  -0.5000000  -0.8660255   0.2323631), wk =   0.0078125
        k(  260) = (  -0.5000000  -0.8660256  -0.3098178), wk =   0.0039062

                       cryst. coord.
        k(    1) = (   0.0000000   0.0000000   0.0000000), wk =   0.0039062
        k(    2) = (  -0.0000000  -0.0000000   0.1250000), wk =   0.0078125
        k(    3) = (  -0.0000000  -0.0000000   0.2500000), wk =   0.0078125
        k(    4) = (  -0.0000000  -0.0000000   0.3750000), wk =   0.0078125
        k(    5) = (   0.0000000   0.0000000  -0.5000000), wk =   0.0039062
        k(    6) = (  -0.0000000   0.1250000   0.0000000), wk =   0.0078125
        k(    7) = (   0.0000000   0.1250000   0.1250000), wk =   0.0078125
        k(    8) = (   0.0000000   0.1250000   0.2500000), wk =   0.0078125
        k(    9) = (   0.0000000   0.1250000   0.3750000), wk =   0.0078125
        k(   10) = (  -0.0000000   0.1250000  -0.5000000), wk =   0.0078125
        k(   11) = (  -0.0000000   0.1250000  -0.3750000), wk =   0.0078125
        k(   12) = (   0.0000000   0.1250000  -0.2500000), wk =   0.0078125
        k(   13) = (  -0.0000000   0.1250000  -0.1250000), wk =   0.0078125
[...]
        k(   24) = (  -0.0000002   0.4116563   0.1778095), wk =   0.0078125
        k(   25) = (  -0.0000002   0.4116563   0.2667142), wk =   0.0078125
        k(   26) = (  -0.0000000   0.4116563  -0.3556187), wk =   0.0078125
        k(   27) = (  -0.0000001   0.4116563  -0.2667140), wk =   0.0078125
        k(   28) = (  -0.0000001   0.4116563  -0.1778093), wk =   0.0078125
        k(   29) = (  -0.0000001   0.4116563  -0.0889046), wk =   0.0078125
        k(   30) = (   0.0000002  -0.5488751  -0.0000001), wk =   0.0039062
        k(   31) = (   0.0000002  -0.5488751   0.0889046), wk =   0.0078125
        k(   32) = (   0.0000001  -0.5488751   0.1778093), wk =   0.0078125
        k(   33) = (   0.0000001  -0.5488750   0.2667140), wk =   0.0078125
        k(   34) = (   0.0000003  -0.5488751  -0.3556189), wk =   0.0039062
        k(   35) = (   0.1188349   0.0686093  -0.0000000), wk =   0.0078125
        k(   36) = (   0.1188349   0.0686093   0.0889047), wk =   0.0078125
        k(   37) = (   0.1188349   0.0686094   0.1778094), wk =   0.0078125
        k(   38) = (   0.1188349   0.0686094   0.2667141), wk =   0.0078125
        k(   39) = (   0.1188350   0.0686093  -0.3556188), wk =   0.0078125
        k(   40) = (   0.1188350   0.0686093  -0.2667141), wk =   0.0078125
        k(   41) = (   0.1188350   0.0686093  -0.1778094), wk =   0.0078125
        k(   42) = (   0.1188350   0.0686093  -0.0889047), wk =   0.0078125
        k(   43) = (   0.1188349   0.2058281   0.0000000), wk =   0.0078125
        k(   44) = (   0.1188349   0.2058281   0.0889047), wk =   0.0078125
        k(   45) = (   0.1188348   0.2058281   0.1778094), wk =   0.0078125
        k(   46) = (   0.1188348   0.2058281   0.2667141), wk =   0.0078125
        k(   47) = (   0.1188350   0.2058281  -0.3556188), wk =   0.0078125
        k(   48) = (   0.1188350   0.2058281  -0.2667141), wk =   0.0078125
        k(   49) = (   0.1188349   0.2058281  -0.1778094), wk =   0.0078125
        k(   50) = (   0.1188349   0.2058281  -0.0889047), wk =   0.0078125
        k(   51) = (   0.1188348   0.3430469   0.0000000), wk =   0.0078125
        k(   52) = (   0.1188348   0.3430469   0.0889047), wk =   0.0078125
        k(   53) = (   0.1188348   0.3430469   0.1778094), wk =   0.0078125
        k(   54) = (   0.1188348   0.3430469   0.2667141), wk =   0.0078125
        k(   55) = (   0.1188349   0.3430469  -0.3556188), wk =   0.0078125
        k(   56) = (   0.1188349   0.3430469  -0.2667141), wk =   0.0078125
        k(   57) = (   0.1188349   0.3430469  -0.1778094), wk =   0.0078125
        k(   58) = (   0.1188349   0.3430469  -0.0889047), wk =   0.0078125
        k(   59) = (   0.1188348   0.4802656   0.0000001), wk =   0.0078125
        k(   60) = (   0.1188348   0.4802656   0.0889048), wk =   0.0078125
[...]
        k(  246) = (  -0.4753398   0.0000002  -0.1778092), wk =   0.0078125
        k(  247) = (  -0.4753398   0.0000002  -0.0889045), wk =   0.0078125
        k(  248) = (  -0.4753399   0.1372189   0.0000002), wk =   0.0078125
        k(  249) = (  -0.4753399   0.1372189   0.0889049), wk =   0.0078125
        k(  250) = (  -0.4753400   0.1372189   0.1778096), wk =   0.0078125
        k(  251) = (  -0.4753400   0.1372189   0.2667143), wk =   0.0078125
        k(  252) = (  -0.4753398   0.1372189  -0.3556186), wk =   0.0078125
        k(  253) = (  -0.4753398   0.1372189  -0.2667139), wk =   0.0078125
        k(  254) = (  -0.4753399   0.1372189  -0.1778092), wk =   0.0078125
        k(  255) = (  -0.4753399   0.1372189  -0.0889045), wk =   0.0078125
        k(  256) = (  -0.4753396  -0.8233124  -0.0000000), wk =   0.0039062
        k(  257) = (  -0.4753396  -0.8233124   0.0889047), wk =   0.0078125
        k(  258) = (  -0.4753396  -0.8233124   0.1778094), wk =   0.0078125
        k(  259) = (  -0.4753397  -0.8233124   0.2667141), wk =   0.0078125
        k(  260) = (  -0.4753395  -0.8233124  -0.3556188), wk =   0.0039062

                       cryst. coord.
        k(    1) = (   0.0000000   0.0000000   0.0000000), wk =   0.0039062
        k(    2) = (   0.0000000   0.0000000   0.1250000), wk =   0.0078125
        k(    3) = (   0.0000000   0.0000000   0.2500000), wk =   0.0078125
        k(    4) = (   0.0000000  -0.0000000   0.3750000), wk =   0.0078125
        k(    5) = (  -0.0000000  -0.0000000  -0.5000000), wk =   0.0039062
        k(    6) = (  -0.0000000   0.1250000   0.0000000), wk =   0.0078125
        k(    7) = (  -0.0000000   0.1250000   0.1250000), wk =   0.0078125
        k(    8) = (  -0.0000000   0.1250000   0.2500000), wk =   0.0078125
        k(    9) = (  -0.0000000   0.1250000   0.3750000), wk =   0.0078125
        k(   10) = (  -0.0000000   0.1250000  -0.5000000), wk =   0.0078125
        k(   11) = (  -0.0000000   0.1250000  -0.3750000), wk =   0.0078125
        k(   12) = (  -0.0000000   0.1250000  -0.2500000), wk =   0.0078125
        k(   13) = (  -0.0000000   0.1250000  -0.1250000), wk =   0.0078125
        k(   14) = (  -0.0000000   0.2500000   0.0000000), wk =   0.0078125
        k(   15) = (  -0.0000000   0.2500000   0.1250000), wk =   0.0078125
        k(   16) = (  -0.0000000   0.2500000   0.2500000), wk =   0.0078125
        k(   17) = (  -0.0000000   0.2500000   0.3750000), wk =   0.0078125
        k(   18) = (  -0.0000000   0.2500000  -0.5000000), wk =   0.0078125
        k(   19) = (  -0.0000000   0.2500000  -0.3750000), wk =   0.0078125
        k(   20) = (  -0.0000000   0.2500000  -0.2500000), wk =   0.0078125
        k(   21) = (  -0.0000000   0.2500000  -0.1250000), wk =   0.0078125
        k(   22) = (  -0.0000000   0.3750000   0.0000000), wk =   0.0078125
        k(   23) = (  -0.0000000   0.3750000   0.1250000), wk =   0.0078125
        k(   24) = (  -0.0000000   0.3750000   0.2500000), wk =   0.0078125
        k(   25) = (   0.0000000   0.3750000   0.3750000), wk =   0.0078125
        k(   26) = (  -0.0000000   0.3750000  -0.5000000), wk =   0.0078125
        k(   27) = (  -0.0000000   0.3750000  -0.3750000), wk =   0.0078125
        k(   28) = (  -0.0000000   0.3750000  -0.2500000), wk =   0.0078125
        k(   29) = (  -0.0000000   0.3750000  -0.1250000), wk =   0.0078125
        k(   30) = (   0.0000000  -0.5000000  -0.0000000), wk =   0.0039062
        k(   31) = (   0.0000000  -0.5000000   0.1250000), wk =   0.0078125
        k(   32) = (   0.0000000  -0.5000000   0.2500000), wk =   0.0078125
        k(   33) = (   0.0000000  -0.5000000   0.3750000), wk =   0.0078125
        k(   34) = (   0.0000000  -0.5000000  -0.5000000), wk =   0.0039062
        k(   35) = (   0.1250000  -0.0000000  -0.0000000), wk =   0.0078125
        k(   36) = (   0.1250000  -0.0000000   0.1250000), wk =   0.0078125
        k(   37) = (   0.1250000  -0.0000000   0.2500000), wk =   0.0078125
        k(   38) = (   0.1250000  -0.0000000   0.3750000), wk =   0.0078125
        k(   39) = (   0.1250000  -0.0000000  -0.5000000), wk =   0.0078125
        k(   40) = (   0.1250000  -0.0000000  -0.3750000), wk =   0.0078125
        k(   41) = (   0.1250000  -0.0000000  -0.2500000), wk =   0.0078125
        k(   42) = (   0.1250000  -0.0000000  -0.1250000), wk =   0.0078125
        k(   43) = (   0.1250000   0.1250000   0.0000000), wk =   0.0078125
        k(   44) = (   0.1250000   0.1250000   0.1250000), wk =   0.0078125
        k(   45) = (   0.1250000   0.1250000   0.2500000), wk =   0.0078125
        k(   46) = (   0.1250000   0.1250000   0.3750000), wk =   0.0078125
        k(   47) = (   0.1250000   0.1250000  -0.5000000), wk =   0.0078125
        k(   48) = (   0.1250000   0.1250000  -0.3750000), wk =   0.0078125
        k(   49) = (   0.1250000   0.1250000  -0.2500000), wk =   0.0078125
        k(   50) = (   0.1250000   0.1250000  -0.1250000), wk =   0.0078125
        k(   51) = (   0.1250000   0.2500000  -0.0000000), wk =   0.0078125
        k(   52) = (   0.1250000   0.2500000   0.1250000), wk =   0.0078125
        k(   53) = (   0.1250000   0.2500000   0.2500000), wk =   0.0078125
        k(   54) = (   0.1250000   0.2500000   0.3750000), wk =   0.0078125
        k(   55) = (   0.1250000   0.2500000  -0.5000000), wk =   0.0078125
        k(   56) = (   0.1250000   0.2500000  -0.3750000), wk =   0.0078125
        k(   57) = (   0.1250000   0.2500000  -0.2500000), wk =   0.0078125
        k(   58) = (   0.1250000   0.2500000  -0.1250000), wk =   0.0078125
        k(   59) = (   0.1250000   0.3750000   0.0000000), wk =   0.0078125
        k(   60) = (   0.1250000   0.3750000   0.1250000), wk =   0.0078125
[...]
        k(  246) = (  -0.5000000   0.2500000  -0.2500000), wk =   0.0078125
        k(  247) = (  -0.5000000   0.2500000  -0.1250000), wk =   0.0078125
        k(  248) = (  -0.5000000   0.3750000   0.0000000), wk =   0.0078125
        k(  249) = (  -0.5000000   0.3750000   0.1250000), wk =   0.0078125
        k(  250) = (  -0.5000000   0.3750000   0.2500000), wk =   0.0078125
        k(  251) = (  -0.5000000   0.3750000   0.3750000), wk =   0.0078125
        k(  252) = (  -0.5000000   0.3750000  -0.5000000), wk =   0.0078125
        k(  253) = (  -0.5000000   0.3750000  -0.3750000), wk =   0.0078125
        k(  254) = (  -0.5000000   0.3750000  -0.2500000), wk =   0.0078125
        k(  255) = (  -0.5000000   0.3750000  -0.1250000), wk =   0.0078125
        k(  256) = (  -0.5000000  -0.5000000  -0.0000000), wk =   0.0039062
        k(  257) = (  -0.5000000  -0.5000000   0.1250000), wk =   0.0078125
        k(  258) = (  -0.5000000  -0.5000000   0.2500000), wk =   0.0078125
        k(  259) = (  -0.5000000  -0.5000000   0.3750000), wk =   0.0078125
        k(  260) = (  -0.5000000  -0.5000000  -0.5000000), wk =   0.0039062

     Check: negative core charge=   -0.000003

     Initial potential from superposition of free atoms

     starting charge   51.99974, renormalised to   52.00000
     Starting wfcs are   34 randomized atomic wfcs

     Self-consistent Calculation

[...]

     total energy              =    -987.06305208 Ry
     Harris-Foulkes estimate   =    -987.06305208 Ry
     estimated scf accuracy    <       0.00000001 Ry

     iteration #  9     ecut=    80.00 Ry     beta= 0.50
     Davidson diagonalization with overlap
     ethr =  2.32E-11,  avg # of iterations =  2.2

     End of self-consistent calculation

[...]

          k = 0.3565 0.0686-0.0889 (  3717 PWs)   bands (ev):

[...]

          k =-0.4753-0.8233-0.3556 (  3732 PWs)   bands (ev):

  -113.8239-113.8239 -68.2057 -68.2057 -68.1737 -68.1737 -68.1729 -68.1729
    -7.7858  -7.7858   2.9347   2.9347   3.8783   3.8783   4.0841   4.0841
     4.8518   4.8519   4.9704   4.9704   5.6783   5.6783   7.3554   7.3554
     8.8295   8.8295

     occupation numbers
     1.0000   1.0000   1.0000   1.0000   1.0000   1.0000   1.0000   1.0000
     1.0000   1.0000   1.0000   1.0000   1.0000   1.0000   1.0000   1.0000
     1.0000   1.0000   1.0000   1.0000   1.0000   1.0000   1.0000   1.0000
     1.0000   1.0000

     highest occupied level (ev):     9.2064

!    total energy              =    -987.06305208 Ry
     Harris-Foulkes estimate   =    -987.06305208 Ry
     estimated scf accuracy    <          5.7E-10 Ry

     The total energy is the sum of the following terms:

     one-electron contribution =    -791.47524900 Ry
     hartree contribution      =     418.19327774 Ry
     xc contribution           =     -98.10032056 Ry
     ewald contribution        =    -515.68076027 Ry

     convergence has been achieved in   9 iterations

     Forces acting on atoms (cartesian axes, Ry/au):

     atom    1 type  2   force =     0.00000013   -0.00000024   -0.00280073
     atom    2 type  2   force =     0.00000012    0.00000095   -0.00280286
     atom    3 type  1   force =    -0.00000044   -0.00000036    0.00280372
     atom    4 type  1   force =     0.00000019   -0.00000034    0.00279987
     The non-local contrib.  to forces
     atom    1 type  2   force =     0.00000012   -0.00000338   -0.04181626
     atom    2 type  2   force =     0.00000105    0.00000009   -0.04181546
     atom    3 type  1   force =     0.00000333   -0.00000655   -0.09659655
     atom    4 type  1   force =    -0.00000098   -0.00000134   -0.09659973
     The ionic contribution  to forces
     atom    1 type  2   force =     0.00000475    0.00003709    0.57695119
     atom    2 type  2   force =    -0.00002297    0.00001591    0.57695230
     atom    3 type  1   force =     0.00003080   -0.00002762   -0.57694697
     atom    4 type  1   force =    -0.00001258   -0.00002538   -0.57695652
     The local contribution  to forces
     atom    1 type  2   force =    -0.00000473   -0.00003395   -0.53815054
     atom    2 type  2   force =     0.00002205   -0.00001505   -0.53815457
     atom    3 type  1   force =    -0.00003456    0.00003382    0.67633412
     atom    4 type  1   force =     0.00001374    0.00002637    0.67634538
     The core correction contribution to forces
     atom    1 type  2   force =     0.00000000    0.00000002    0.00022112
     atom    2 type  2   force =     0.00000000   -0.00000001    0.00022110
     atom    3 type  1   force =     0.00000000    0.00000000    0.00000000
     atom    4 type  1   force =     0.00000000    0.00000000    0.00000000
     The Hubbard contrib.    to forces
     atom    1 type  2   force =     0.00000000    0.00000000    0.00000000
     atom    2 type  2   force =     0.00000000    0.00000000    0.00000000
     atom    3 type  1   force =     0.00000000    0.00000000    0.00000000
     atom    4 type  1   force =     0.00000000    0.00000000    0.00000000
     The SCF correction term to forces
     atom    1 type  2   force =     0.00000000    0.00000000    0.00000000
     atom    2 type  2   force =     0.00000000    0.00000000    0.00000000
     atom    3 type  1   force =     0.00000000    0.00000000    0.00000000
     atom    4 type  1   force =     0.00000000    0.00000000    0.00000000

     Total force =     0.000000     Total SCF correction =     0.000000

     Computing stress (Cartesian axis) and pressure

          total   stress  (Ry/bohr**3)                   (kbar)     P=   -0.93
  -0.00000013   0.00000000  -0.00000001         -0.02      0.00     -0.00
   0.00000000  -0.00000013   0.00000000          0.00     -0.02      0.00
  -0.00000001   0.00000000  -0.00001879         -0.00      0.00     -2.76

     kinetic stress (kbar)  35037.30     -0.00     -0.00
                               -0.00  35037.30      0.00
                               -0.00      0.00  35428.00

     local   stress (kbar)   2046.28     -0.01     -0.02
                               -0.01   2046.09      0.02
                               -0.02      0.02 -12774.01

     nonloc. stress (kbar)  -1729.74      0.00      0.00
                                0.00  -1729.74     -0.00
                                0.00     -0.00  -1874.79

     hartree stress (kbar)  64132.94      0.00      0.01
                                0.00  64133.02     -0.01
                                0.01     -0.01  71891.24

     exc-cor stress (kbar) -14683.35      0.00      0.00
                                0.00 -14683.35     -0.00
                                0.00     -0.00 -14687.76

     corecor stress (kbar)   -258.17      0.00      0.00
                                0.00   -258.17     -0.00
                                0.00     -0.00   -258.88

     ewald   stress (kbar) -84545.28      0.01      0.01
                                0.01 -84545.17     -0.01
                                0.01     -0.01 -77726.56

     hubbard stress (kbar)      0.00      0.00      0.00
                                0.00      0.00      0.00
                                0.00      0.00      0.00

     london  stress (kbar)      0.00      0.00      0.00
                                0.00      0.00      0.00
                                0.00      0.00      0.00

     DFT-D3  stress (kbar)      0.00      0.00      0.00
                                0.00      0.00      0.00
                                0.00      0.00      0.00

     XDM     stress (kbar)      0.00      0.00      0.00
                                0.00      0.00      0.00
                                0.00      0.00      0.00

     dft-nl  stress (kbar)      0.00      0.00      0.00
                                0.00      0.00      0.00
                                0.00      0.00      0.00

     TS-vdW  stress (kbar)      0.00      0.00      0.00
                                0.00      0.00      0.00
                                0.00      0.00      0.00

     Writing output data file ZnO.save/

     General routines

     Parallel routines

   This run was terminated on:  23: 4: 7   7Jun2022

   JOB DONE.